15

Ar -2 -1.99606 -1.83348
Ar -1.29343 -0.541591 -1.63468
Ar -1.63081 -0.0511311 0.107001
Ar -0.182266 -1.06729 1.32517
Ar 1.72693 0.272238 0.224377
Ar -1.79667 1.0682 -1.92434
Ar -0.990561 -0.807211 1.50392
Ar 0.126227 1.68104 0.0617246
Ar 1.24172 -1.24632 1.54526
Ar 0.282456 -1.6929 1.2611
Ar 1.93956 -1.52659 1.57562
Ar 1.13793 -1.59633 -0.986757
Ar -1.92063 -0.48649 0.71551
Ar 0.723692 1.01083 -1.97508
Ar 0.497627 -1.49415 0.470199
15

Ar -1.99977 -1.99713 -1.83152
Ar -1.29359 -0.541367 -1.63406
Ar -1.62753 -0.0515206 0.105194
Ar -0.182564 -1.06593 1.32522
Ar 1.72406 0.274027 0.224569
Ar -1.79649 1.06762 -1.92437
Ar -0.9912 -0.807012 1.50366
Ar 0.126017 1.68059 0.0614582
Ar 1.23958 -1.24521 1.54524
Ar 0.283077 -1.69488 1.26209
Ar 1.94162 -1.52613 1.57384
Ar 1.13787 -1.59629 -0.986648
Ar -1.92109 -0.487725 0.716915
Ar 0.723624 1.01075 -1.97506
Ar 0.498162 -1.49353 0.469006
15

Ar -1.99912 1.99974 -1.82575
Ar -1.29405 -0.540696 -1.6322
Ar -1.61799 -0.0526071 0.0999034
Ar -0.183394 -1.06194 1.32537
Ar 1.71576 0.279223 0.225113
Ar -1.79596 1.06585 -1.92447
Ar -0.993115 -0.806414 1.50289
Ar 0.125388 1.67922 0.0606634
Ar 1.23333 -1.24193 1.54519
Ar 0.284889 -1.70074 1.26504
Ar 1.94765 -1.52478 1.5686
Ar 1.13767 -1.59617 -0.986319
Ar -1.92245 -0.491342 0.721031
Ar 0.723421 1.01053 -1.975
Ar 0.499747 -1.49169 0.465474
15

Ar -1.9981 1.99483 -1.81645
Ar -1.29482 -0.539586 -1.62911
Ar -1.60297 -0.0541922 0.0914587
Ar -0.18458 -1.05551 1.32557
Ar 1.70274 0.287403 0.225935
Ar -1.79507 1.0629 -1.92465
Ar -0.996309 -0.805419 1.50162
Ar 0.124343 1.67695 0.0593503
Ar 1.22337 -1.23667 1.54518
Ar 0.287756 -1.71028 1.26986
Ar 1.95733 -1.52261 1.56012
Ar 1.13733 -1.59597 -0.985773
Ar -1.92465 -0.497107 0.727595
Ar 0.723083 1.01016 -1.97489
Ar 0.502335 -1.48864 0.459727
15

Ar -1.99682 1.98848 -1.80403
Ar -1.29587 -0.538045 -1.62483
Ar -1.58349 -0.0560475 0.0803154
Ar -0.18587 -1.04691 1.32576
Ar 1.68592 0.298022 0.22694
Ar -1.79383 1.05877 -1.92491
Ar -1.00078 -0.804027 1.49987
Ar 0.12289 1.67381 0.0575352
Ar 1.21027 -1.22965 1.54528
Ar 0.291483 -1.7232 1.27639
Ar 1.97019 -1.51978 1.54877
Ar 1.13685 -1.59568 -0.985012
Ar -1.92761 -0.504694 0.736233
Ar 0.722611 1.00964 -1.97473
Ar 0.505849 -1.48443 0.451955
15

Ar -1.99537 1.98112 -1.78893
Ar -1.29721 -0.536088 -1.61937
Ar -1.56056 -0.0579854 0.0669641
Ar -0.186984 -1.03646 1.32588
Ar 1.66622 0.310543 0.22804
Ar -1.79223 1.05345 -1.92527
Ar -1.00652 -0.802242 1.49767
Ar 0.121035 1.66981 0.0552398
Ar 1.19465 -1.22112 1.54558
Ar 0.295846 -1.73915 1.28445
Ar 1.98569 -1.51644 1.53496
Ar 1.13624 -1.5953 -0.984039
Ar -1.93124 -0.51374 0.746527
Ar 0.722008 1.00897 -1.97453
Ar 0.510201 -1.47912 0.442384
15

Ar -1.99383 1.97313 -1.77162
Ar -1.2988 -0.533729 -1.61277
Ar -1.53501 -0.0598829 0.0518691
Ar -0.187648 -1.0245 1.32587
Ar 1.64438 0.324512 0.229165
Ar -1.79028 1.04697 -1.92578
Ar -1.01351 -0.80007 1.49504
Ar 0.118791 1.66499 0.0524903
Ar 1.17712 -1.21132 1.54614
Ar 0.300623 -1.75775 1.29384
Ar 2.00331 -1.51276 1.5191
Ar 1.13549 -1.59484 -0.982857
Ar -1.93544 -0.52389 0.758068
Ar 0.721276 1.00814 -1.97429
Ar 0.515295 -1.47276 0.431256
15

Ar -1.99225 1.96484 -1.75249
Ar -1.30063 -0.53099 -1.60507
Ar -1.50755 -0.0616744 0.0354215
Ar -0.187631 -1.0113 1.3257
Ar 1.621 0.339574 0.230271
Ar -1.78799 1.03932 -1.92644
Ar -1.02169 -0.797519 1.49204
Ar 0.116171 1.65939 0.0493165
Ar 1.15824 -1.20043 1.54701
Ar 0.305612 -1.77866 1.30435
Ar 2.02257 -1.50892 1.50161
Ar 1.13461 -1.59428 -0.98147
Ar -1.94013 -0.534828 0.770486
Ar 0.720418 1.00716 -1.97399
Ar 0.521034 -1.46544 0.418809
15

Ar -1.99066 1.95652 -1.7319
Ar -1.30268 -0.52789 -1.59632
Ar -1.47867 -0.0633332 0.0179372
Ar -0.186758 -0.997127 1.32533
Ar 1.59649 0.355463 0.231328
Ar -1.78535 1.03056 -1.92728
Ar -1.031 -0.794599 1.48869
Ar 0.113189 1.65306 0.0457503
Ar 1.13842 -1.1886 1.54822
Ar 0.310648 -1.80158 1.31576
Ar 2.04304 -1.5051 1.48282
Ar 1.13357 -1.59362 -0.979885
Ar -1.94525 -0.546276 0.783462
Ar 0.719438 1.00601 -1.97364
Ar 0.527329 -1.45723 0.405261
15

Ar -1.98908 1.94837 -1.71012
Ar -1.30491 -0.524455 -1.58658
Ar -1.44875 -0.0648544 -0.000334932
Ar -0.184916 -0.98218 1.32475
Ar 1.57117 0.371982 0.23232
Ar -1.78238 1.0207 -1.92831
Ar -1.04132 -0.791318 1.48503
Ar 0.109863 1.64604 0.0418245
Ar 1.11803 -1.17596 1.54978
Ar 0.315598 -1.82621 1.32792
Ar 2.06439 -1.50147 1.46306
Ar 1.13239 -1.59287 -0.978105
Ar -1.95075 -0.557999 0.796727
Ar 0.71834 1.0047 -1.97323
Ar 0.5341 -1.44824 0.390801
15

Ar -1.98751 1.9405 -1.68736
Ar -1.30732 -0.520709 -1.57589
Ar -1.41806 -0.0662437 -0.0192045
Ar -0.182052 -0.966629 1.32396
Ar 1.54526 0.388987 0.233239
Ar -1.7791 1.00983 -1.92956
Ar -1.05253 -0.787681 1.48111
Ar 0.106211 1.63838 0.037572
Ar 1.09732 -1.16258 1.55171
Ar 0.320368 -1.85232 1.34065
Ar 2.08633 -1.49819 1.44256
Ar 1.13107 -1.592 -0.976137
Ar -1.95661 -0.569795 0.810057
Ar 0.717131 1.00323 -1.97275
Ar 0.541281 -1.43853 0.375594
15

Ar -1.98594 1.933 -1.66382
Ar -1.30988 -0.516678 -1.56433
Ar -1.3868 -0.067511 -0.0385262
Ar -0.178164 -0.950595 1.32296
Ar 1.5189 0.40637 0.234083
Ar -1.77552 0.997996 -1.93103
Ar -1.06447 -0.783685 1.47697
Ar 0.102252 1.63013 0.0330246
Ar 1.07647 -1.14853 1.554
Ar 0.324895 -1.8797 1.35383
Ar 2.10863 -1.49542 1.42154
Ar 1.12959 -1.59103 -0.973987
Ar -1.96282 -0.581485 0.82326
Ar 0.715817 1.00158 -1.97221
Ar 0.548808 -1.4282 0.35977
15

Ar -1.98434 1.9259 -1.63961
Ar -1.31255 -0.512391 -1.55195
Ar -1.35511 -0.0686683 -0.0581885
Ar -0.173292 -0.934165 1.32177
Ar 1.49223 0.42405 0.234852
Ar -1.77165 0.98528 -1.93274
Ar -1.07696 -0.779317 1.47267
Ar 0.0980077 1.62135 0.0282128
Ar 1.05562 -1.13389 1.55665
Ar 0.329144 -1.90817 1.36735
Ar 2.1311 -1.49333 1.40018
Ar 1.12795 -1.58993 -0.971664
Ar -1.9694 -0.592907 0.836174
Ar 0.714405 0.999751 -1.9716
Ar 0.556628 -1.41732 0.34344
15

Ar -1.98269 1.91921 -1.61486
Ar -1.31533 -0.507874 -1.53881
Ar -1.3231 -0.0697273 -0.0781049
Ar -0.167506 -0.917405 1.3204
Ar 1.46531 0.441961 0.235548
Ar -1.76752 0.971763 -1.93468
Ar -1.08981 -0.774553 1.46825
Ar 0.0934982 1.61208 0.0231728
Ar 1.03485 -1.11869 1.55964
Ar 0.333099 -1.93755 1.38112
Ar 2.15361 -1.49211 1.3786
Ar 1.12616 -1.58871 -0.969176
Ar -1.97638 -0.603914 0.848657
Ar 0.712905 0.997724 -1.9709
Ar 0.564693 -1.40596 0.326695
15

Ar -1.98098 1.9129 -1.58966
Ar -1.3182 -0.503156 -1.52497
Ar -1.29083 -0.0706959 -0.0982066
Ar -0.160899 -0.900359 1.31887
Ar 1.43821 0.460057 0.236175
Ar -1.76315 0.957524 -1.93686
Ar -1.10281 -0.769355 1.46378
Ar 0.0887412 1.60237 0.0179377
Ar 1.01422 -1.103 1.56296
Ar 0.336759 -1.9677 1.39506
Ar 2.17603 -1.49192 1.35692
Ar 1.1242 -1.58735 -0.966535
Ar -1.98381 -0.614366 0.860589
Ar 0.711329 0.995482 -1.97012
Ar 0.57296 -1.39419 0.309609
15

Ar -1.97916 1.90694 -1.56408
Ar -1.32114 -0.498265 -1.51051
Ar -1.25837 -0.0715802 -0.118438
Ar -0.153577 -0.883059 1.31719
Ar 1.41097 0.4783 0.236736
Ar -1.75855 0.942648 -1.93926
Ar -1.11578 -0.763674 1.45933
Ar 0.083753 1.59227 0.0125308
Ar 0.993779 -1.08687 1.5666
Ar 0.340132 -1.99847 1.40911
Ar 2.1983 -1.49295 1.33522
Ar 1.12207 -1.58586 -0.963751
Ar -1.99174 -0.624136 0.871865
Ar 0.709688 0.993007 -1.96923
Ar 0.581394 -1.38206 0.292241
15

Ar -1.97721 1.90129 -1.53818
Ar -1.32413 -0.493229 -1.49548
Ar -1.22576 -0.0723843 -0.138752
Ar -0.145657 -0.865528 1.31537
Ar 1.38363 0.496663 0.237233
Ar -1.75375 0.927213 -1.94189
Ar -1.12852 -0.757451 1.45497
Ar 0.0785489 1.58182 0.00697267
Ar 0.973558 -1.07037 1.57055
Ar 0.343228 1.97027 1.42323
Ar 2.22035 -1.49537 1.31354
Ar 1.11978 -1.58422 -0.960839
Ar 1.99974 -0.63311 0.882404
Ar 0.708 0.990272 -1.96823
Ar 0.589961 -1.36961 0.274642
15

Ar -1.97512 1.8959 -1.51201
Ar -1.32716 -0.488075 -1.47994
Ar -1.19302 -0.0731109 -0.159108
Ar -0.137259 -0.847779 1.31342
Ar 1.35623 0.51512 0.237672
Ar -1.74877 0.9113 -1.94472
Ar -1.14088 -0.750623 1.45077
Ar 0.0731423 1.57106 0.00128171
Ar 0.953589 -1.05354 1.57481
Ar 0.346057 1.93864 1.43735
Ar 2.24217 -1.49936 1.29193
Ar 1.11731 -1.58244 -0.957814
Ar 1.99056 -0.641194 0.892142
Ar 0.706282 0.987248 -1.96709
Ar 0.598632 -1.35691 0.256858
15

Ar -1.97285 1.89073 -1.48561
Ar -1.33023 -0.48283 -1.46396
Ar -1.16017 -0.0737612 -0.179469
Ar -0.128506 -0.829821 1.31133
Ar 1.32877 0.533646 0.238054
Ar -1.74362 0.894982 -1.94775
Ar -1.15269 -0.743127 1.44681
Ar 0.0675453 1.56003 -0.00452612
Ar 0.933908 -1.03646 1.57938
Ar 0.348628 1.90678 1.45144
Ar 2.26375 -1.50502 1.27038
Ar 1.11467 -1.58052 -0.954695
Ar 1.98063 -0.648321 0.901042
Ar 0.704554 0.983899 -1.96579
Ar 0.607381 -1.34396 0.238928
15

Ar -1.97038 1.88572 -1.45903
Ar -1.33333 -0.477522 -1.4476
Ar -1.12724 -0.0743359 -0.1998
Ar -0.119522 -0.811656 1.3091
Ar 1.30129 0.552225 0.238382
Ar -1.73832 0.878325 -1.95097
Ar -1.16386 -0.734912 1.44315
Ar 0.0617678 1.54876 -0.010437
Ar 0.914555 -1.01918 1.58425
Ar 0.35094 1.87481 1.46543
Ar 2.28511 -1.51245 1.24888
Ar 1.11186 -1.57844 -0.951502
Ar 1.96988 -0.654455 0.909088
Ar 0.702841 0.980181 -1.96428
Ar 0.616183 -1.33082 0.22089
15

Ar -1.9677 1.88085 -1.43229
Ar -1.33646 -0.472177 -1.43091
Ar -1.09422 -0.0748331 -0.220066
Ar -0.110435 -0.793281 1.30672
Ar 1.27379 0.570841 0.238658
Ar -1.73289 0.861389 -1.95436
Ar -1.1743 -0.725937 1.43985
Ar 0.0558183 1.53728 -0.0164391
Ar 0.895584 -1.00176 1.58945
Ar 0.352989 1.84285 1.47929
Ar 2.30628 -1.5217 1.22739
Ar 1.10887 -1.57623 -0.948257
Ar 1.95826 -0.659594 0.916288
Ar 0.70117 0.976055 -1.96254
Ar 0.625014 -1.3175 0.20278
15

Ar -1.96478 1.87606 -1.40543
Ar -1.33963 -0.466822 -1.41395
Ar -1.06112 -0.0752493 -0.240235
Ar -0.101374 -0.77469 1.30416
Ar 1.2463 0.589482 0.238885
Ar -1.72734 0.844228 -1.95791
Ar -1.18396 -0.716185 1.43696
Ar 0.049703 1.52564 -0.0225224
Ar 0.877055 -0.984277 1.59498
Ar 0.35476 1.81101 1.49296
Ar 2.32731 -1.53275 1.20587
Ar 1.10571 -1.57386 -0.944988
Ar 1.9457 -0.66377 0.92267
Ar 0.699575 0.971472 -1.96052
Ar 0.633854 -1.30403 0.184633
15

Ar -1.96161 1.87132 -1.37846
Ar -1.34283 -0.461485 -1.39678
Ar -1.02794 -0.0755797 -0.260273
Ar -0.0924676 -0.755871 1.30139
Ar 1.21883 0.608135 0.239065
Ar -1.72169 0.826892 -1.96161
Ar -1.19284 -0.705661 1.4345
Ar 0.0434265 1.51384 -0.0286786
Ar 0.859043 -0.966777 1.60087
Ar 0.356233 1.77942 1.50636
Ar 2.34825 -1.54553 1.18428
Ar 1.10239 -1.57136 -0.941722
Ar 1.93221 -0.667045 0.928274
Ar 0.698095 0.966359 -1.95817
Ar 0.64268 -1.29041 0.166485
15

Ar -1.95819 1.86661 -1.3514
Ar -1.34608 -0.456192 -1.37945
Ar -0.994666 -0.075818 -0.280146
Ar -0.0838502 -0.736807 1.29839
Ar 1.19139 0.626789 0.2392
Ar -1.71595 0.809425 -1.96545
Ar -1.20095 -0.694392 1.4325
Ar 0.0369918 1.50193 -0.0349011
Ar 0.841627 -0.949316 1.60715
Ar 0.35738 1.74821 1.51945
Ar 2.36915 -1.55993 1.16258
Ar 1.0989 -1.56873 -0.938492
Ar 1.91777 -0.669502 0.933152
Ar 0.696775 0.960636 -1.95542
Ar 0.651473 -1.27667 0.148372
15

Ar -1.95451 1.86189 -1.32428
Ar -1.34939 -0.450971 -1.36201
Ar -0.961295 -0.0759571 -0.29982
Ar -0.0756664 -0.71748 1.29511
Ar 1.16399 0.645432 0.239293
Ar -1.71012 0.791867 -1.96942
Ar -1.20832 -0.682423 1.43095
Ar 0.0304052 1.48993 -0.0411848
Ar 0.824898 -0.931944 1.61387
Ar 0.358173 1.71751 1.53214
Ar 2.39003 -1.57581 1.14075
Ar 1.09527 -1.56597 -0.935334
Ar 1.90243 -0.671236 0.937359
Ar 0.695666 0.954208 -1.9522
Ar 0.66021 -1.26279 0.130331
15

Ar -1.95056 1.85715 -1.2971
Ar -1.35278 -0.445845 -1.34452
Ar -0.927808 -0.0759887 -0.319261
Ar -0.0680639 -0.697864 1.2915
Ar 1.13665 0.664052 0.239347
Ar -1.70423 0.774256 -1.9735
Ar -1.215 -0.669815 1.42984
Ar 0.0236659 1.47786 -0.0475259
Ar 0.808951 -0.914714 1.62106
Ar 0.358565 1.68745 1.54434
Ar 2.41093 -1.59302 1.11874
Ar 1.09149 -1.5631 -0.932286
Ar 1.88625 -0.67235 0.940951
Ar 0.694829 0.946974 -1.94844
Ar 0.66887 -1.2488 0.112401
15

Ar -1.94634 1.85236 -1.26987
Ar -1.35626 -0.440841 -1.32701
Ar -0.894183 -0.0759043 -0.338437
Ar -0.0611716 -0.677933 1.2875
Ar 1.10939 0.682638 0.239364
Ar -1.69827 0.756624 -1.97771
Ar -1.22105 -0.656638 1.42913
Ar 0.0167698 1.46574 -0.0539224
Ar 0.79388 -0.897676 1.62878
Ar 0.358498 1.65818 1.55597
Ar 2.43187 -1.61137 1.09657
Ar 1.08759 -1.56012 -0.92939
Ar 1.86929 -0.672941 0.943982
Ar 0.694329 0.938824 -1.94404
Ar 0.677431 -1.23468 0.0946214
15

Ar -1.94184 1.84751 -1.2426
Ar -1.35987 -0.435983 -1.30953
Ar -0.860408 -0.0756952 -0.357319
Ar -0.055109 -0.657657 1.28305
Ar 1.08223 0.701177 0.23935
Ar -1.69227 0.739005 -1.98201
Ar -1.22653 -0.642963 1.4288
Ar 0.00971017 1.4536 -0.0603735
Ar 0.779777 -0.88088 1.63709
Ar 0.357911 1.62982 1.56694
Ar 2.45287 -1.63072 1.07422
Ar 1.08358 -1.55707 -0.926692
Ar 1.85161 -0.673102 0.9465
Ar 0.694236 0.929645 -1.93892
Ar 0.685874 -1.22044 0.077035
15

Ar -1.93708 1.84258 -1.2153
Ar -1.36363 -0.431292 -1.29212
Ar -0.826464 -0.0753535 -0.37588
Ar -0.0499809 -0.637009 1.27808
Ar 1.0552 0.719656 0.239309
Ar -1.68622 0.721427 -1.98642
Ar -1.23151 -0.628865 1.42882
Ar 0.00247736 1.44147 -0.0668805
Ar 0.766722 -0.864375 1.64605
Ar 0.356735 1.60252 1.57715
Ar 2.47394 -1.65091 1.05171
Ar 1.07948 -1.55396 -0.924242
Ar 1.83329 -0.672916 0.948553
Ar 0.694624 0.919325 -1.93297
Ar 0.694177 -1.20606 0.0596859
15

Ar -1.93204 1.83757 -1.18796
Ar -1.36757 -0.42679 -1.2748
Ar -0.792322 -0.074873 -0.394099
Ar -0.0458708 -0.615961 1.27254
Ar 1.02832 0.738062 0.239247
Ar -1.68014 0.703918 -1.99092
Ar -1.23605 -0.614411 1.42913
Ar -0.00494153 1.42936 -0.0734462
Ar 0.754794 -0.848202 1.65571
Ar 0.354906 1.57639 1.58651
Ar 2.49508 -1.6718 1.02905
Ar 1.07531 -1.55081 -0.922095
Ar 1.81441 -0.672453 0.950181
Ar 0.695564 0.907766 -1.92612
Ar 0.702321 -1.19152 0.0426218
15

Ar -1.92674 1.83247 -1.1606
Ar -1.37172 -0.422493 -1.25761
Ar -0.757954 -0.0742491 -0.411963
Ar -0.0428355 -0.594491 1.26637
Ar 1.00161 0.756381 0.239173
Ar -1.67404 0.686504 -1.99551
Ar -1.24022 -0.599666 1.4297
Ar -0.0125629 1.4173 -0.0800753
Ar 0.744039 -0.832398 1.66613
Ar 0.352363 1.55153 1.59495
Ar 2.5163 -1.69327 1.00625
Ar 1.07109 -1.54766 -0.920303
Ar 1.79505 -0.671773 0.95142
Ar 0.697123 0.894887 -1.91828
Ar 0.710287 -1.17683 0.0258903
15

Ar -1.92119 1.82728 -1.13322
Ar -1.37612 -0.418418 -1.24054
Ar -0.723333 -0.0734798 -0.429466
Ar -0.0409004 -0.572584 1.25951
Ar 0.975101 0.774596 0.239096
Ar -1.66791 0.669209 1.99982
Ar -1.24408 -0.584692 1.4305
Ar -0.0204073 1.40531 -0.086775
Ar 0.734466 -0.816993 1.67736
Ar 0.349056 1.52801 1.60241
Ar 2.53758 -1.71523 0.983319
Ar 1.06684 -1.54453 -0.91892
Ar 1.77526 -0.670925 0.952302
Ar 0.699354 0.880637 -1.9094
Ar 0.718053 -1.16195 0.00953885
15

Ar -1.91537 1.82198 -1.1058
Ar -1.38079 -0.414574 -1.2236
Ar -0.688438 -0.0725665 -0.446612
Ar -0.0400582 -0.55024 1.25195
Ar 0.94883 0.792693 0.239028
Ar -1.66177 0.65206 1.99507
Ar -1.24766 -0.569543 1.43148
Ar -0.0284994 1.39344 -0.093555
Ar 0.726052 -0.802005 1.68942
Ar 0.344951 1.50586 1.60885
Ar 2.55892 -1.73759 0.960283
Ar 1.06258 -1.54146 -0.918001
Ar 1.75514 -0.669952 0.952856
Ar 0.702298 0.864998 -1.89943
Ar 0.725603 -1.14686 -0.00638505
15

Ar -1.90931 1.81658 -1.07837
Ar -1.38575 -0.410968 -1.20679
Ar -0.653252 -0.0715139 -0.463415
Ar -0.04027 -0.527459 1.24365
Ar 0.922833 0.810652 0.238983
Ar -1.65563 0.63508 1.99025
Ar -1.25102 -0.554273 1.43261
Ar -0.0368686 1.38171 -0.100428
Ar 0.718746 -0.787444 1.70232
Ar 0.340037 1.48507 1.61427
Ar 2.58032 -1.76027 0.937149
Ar 1.05833 -1.53849 -0.917597
Ar 1.73473 -0.668885 0.953106
Ar 0.705972 0.847991 -1.88837
Ar 0.732919 -1.13154 -0.0218342
15

Ar -1.90302 1.81108 -1.05091
Ar -1.39101 -0.4076 -1.19008
Ar -0.617765 -0.0703303 -0.479896
Ar -0.0414701 -0.504258 1.23462
Ar 0.89715 0.828456 0.238978
Ar -1.64951 0.618296 1.98537
Ar -1.25418 -0.538929 1.43386
Ar -0.0455494 1.37014 -0.107409
Ar 0.712469 -0.773307 1.71608
Ar 0.334329 1.4656 1.61868
Ar 2.60176 -1.78321 0.913936
Ar 1.05412 -1.53565 -0.917761
Ar 1.7141 -0.667751 0.953075
Ar 0.710376 0.829676 -1.87623
Ar 0.739985 -1.11597 -0.0367638
15

Ar -1.8965 1.80548 -1.02345
Ar -1.39659 -0.404469 -1.17347
Ar -0.581976 -0.0690275 -0.496084
Ar -0.043572 -0.480674 1.22488
Ar 0.871829 0.846085 0.239032
Ar -1.64341 0.601734 1.98043
Ar -1.25719 -0.523558 1.4352
Ar -0.0545818 1.35877 -0.114518
Ar 0.707124 -0.759585 1.73066
Ar 0.327858 1.4474 1.62214
Ar 2.62324 -1.80637 0.89067
Ar 1.04996 -1.533 -0.918539
Ar 1.6933 -0.66657 0.952782
Ar 0.715489 0.810141 -1.86306
Ar 0.746789 -1.10012 -0.0511332
15

Ar -1.88976 1.79978 -0.995992
Ar -1.40247 -0.401567 -1.15691
Ar -0.545893 -0.0676201 -0.512013
Ar -0.0464762 -0.456733 1.21446
Ar 0.846924 0.86352 0.23917
Ar -1.63735 0.585422 1.97545
Ar -1.26005 -0.508209 1.43659
Ar -0.0640109 1.34763 -0.121778
Ar 0.702603 -0.746261 1.74603
Ar 0.320667 1.43037 1.62473
Ar 2.64474 -1.82971 0.867363
Ar 1.04587 -1.53056 -0.919973
Ar 1.67239 -0.66536 0.952249
Ar 0.721271 0.789498 -1.84892
Ar 0.753317 -1.08395 -0.064907
15

Ar -1.88282 1.79397 -0.96853
Ar -1.40866 -0.398886 -1.14038
Ar -0.50953 -0.066125 -0.527719
Ar -0.0500771 -0.432467 1.2034
Ar 0.822492 0.88074 0.239418
Ar -1.63134 0.56939 1.97044
Ar -1.2628 -0.492927 1.43801
Ar -0.073887 1.33674 -0.129214
Ar 0.69879 -0.733313 1.76215
Ar 0.312811 1.4144 1.62651
Ar 2.66628 -1.85318 0.844026
Ar 1.04188 -1.52838 -0.922098
Ar 1.6514 -0.664132 0.95149
Ar 0.727675 0.767875 -1.83389
Ar 0.759561 -1.06745 -0.0780569
15

Ar -1.87568 1.78806 -0.941068
Ar -1.41514 -0.396415 -1.12386
Ar -0.472909 -0.0645605 -0.543241
Ar -0.0542693 -0.407908 1.19174
Ar 0.798595 0.897729 0.239807
Ar -1.62538 0.553672 1.96541
Ar -1.26545 -0.477759 1.43942
Ar -0.0842651 1.32614 -0.136857
Ar 0.695572 -0.720717 1.77897
Ar 0.304355 1.39937 1.62759
Ar 2.68782 -1.87677 0.820675
Ar 1.03798 -1.52651 -0.92494
Ar 1.63038 -0.662899 0.95052
Ar 0.734642 0.745402 -1.81806
Ar 0.765519 -1.05059 -0.0905624
15

Ar -1.86837 1.78206 -0.913606
Ar -1.42188 -0.39414 -1.10732
Ar -0.436058 -0.062946 -0.558616
Ar -0.0589521 -0.383093 1.17954
Ar 0.775298 0.914469 0.240371
Ar -1.61949 0.538305 1.96038
Ar -1.26802 -0.462756 1.44081
Ar -0.0952035 1.31586 -0.144742
Ar 0.692845 -0.708448 1.79643
Ar 0.295364 1.38516 1.62806
Ar 2.70938 -1.90044 0.797318
Ar 1.03418 -1.52497 -0.928516
Ar 1.60937 -0.66167 0.94935
Ar 0.742111 0.722214 -1.80151
Ar 0.771193 -1.03335 -0.102413
15

Ar -1.86088 1.77597 -0.886146
Ar -1.42886 -0.392047 -1.09072
Ar -0.399008 -0.0613005 -0.573871
Ar -0.0640335 -0.358056 1.16685
Ar 0.75267 0.930947 0.241148
Ar -1.61369 0.523332 1.95539
Ar -1.27051 -0.447971 1.44213
Ar -0.106762 1.30591 -0.152905
Ar 0.690514 -0.696482 1.81448
Ar 0.285903 1.37166 1.62801
Ar 2.73094 -1.92418 0.773967
Ar 1.0305 -1.5238 -0.932831
Ar 1.58838 -0.660451 0.947993
Ar 0.750018 0.698433 -1.78434
Ar 0.776588 -1.01572 -0.113607
15

Ar -1.85324 1.76979 -0.85869
Ar -1.43607 -0.390122 -1.07404
Ar -0.361796 -0.0596424 -0.589034
Ar -0.069431 -0.332829 1.15372
Ar 0.730778 0.947154 0.242176
Ar -1.60798 0.508801 1.95044
Ar -1.27291 -0.433465 1.44333
Ar -0.119 1.29633 -0.161387
Ar 0.688491 -0.684801 1.83304
Ar 0.276034 1.35878 1.62753
Ar 2.75249 -1.94796 0.75063
Ar 1.02694 -1.52302 -0.93788
Ar 1.56745 -0.659248 0.946461
Ar 0.75831 0.674179 -1.7666
Ar 0.781715 -0.997692 -0.124154
15

Ar -1.84546 1.76352 -0.83124
Ar -1.44347 -0.388351 -1.05727
Ar -0.32446 -0.0579887 -0.604132
Ar -0.0750733 -0.307442 1.14019
Ar 0.709693 0.963087 0.243498
Ar -1.6024 0.494767 1.94559
Ar -1.27523 -0.419304 1.44439
Ar -0.131974 1.28712 -0.170228
Ar 0.686702 -0.673388 1.85208
Ar 0.265814 1.34643 1.6267
Ar 2.77401 -1.97178 0.727317
Ar 1.02349 -1.52265 -0.94365
Ar 1.54661 -0.658066 0.944767
Ar 0.766937 0.649558 -1.74839
Ar 0.786586 -0.979257 -0.134073
15

Ar -1.83755 1.75717 -0.803802
Ar -1.45103 -0.38672 -1.04039
Ar -0.287034 -0.0563544 -0.619193
Ar -0.0808992 -0.281924 1.12631
Ar 0.689477 0.978748 0.245171
Ar -1.59697 0.481291 1.94087
Ar -1.27747 -0.405561 1.44525
Ar -0.145733 1.27829 -0.179467
Ar 0.685081 -0.662232 1.87151
Ar 0.255293 1.33454 1.62558
Ar 2.79551 -1.99562 0.704041
Ar 1.02015 -1.52271 -0.950114
Ar 1.52587 -0.656911 0.942929
Ar 0.775858 0.624668 -1.72978
Ar 0.791219 -0.960426 -0.143388
15

Ar -1.82953 1.75074 -0.776381
Ar -1.45874 -0.385217 -1.02339
Ar -0.249554 -0.0547525 -0.634237
Ar -0.0868576 -0.256299 1.11212
Ar 0.670177 0.994146 0.247234
Ar -1.59171 0.468446 1.93633
Ar -1.2796 -0.392318 1.44588
Ar -0.160316 1.26985 -0.189143
Ar 0.683573 -0.651342 1.89128
Ar 0.244518 1.32306 1.62424
Ar 2.81697 1.98054 0.680814
Ar 1.01692 -1.5232 -0.957241
Ar 1.50524 -0.655789 0.940968
Ar 0.785038 0.599598 -1.71082
Ar 0.795638 -0.941212 -0.152114
15

Ar -1.82141 1.74423 -0.748984
Ar -1.46657 -0.383829 -1.00627
Ar -0.212055 -0.053193 -0.649282
Ar -0.0929066 -0.23059 1.09766
Ar 0.651828 1.0093 0.249713
Ar -1.58665 0.456314 1.93202
Ar -1.28161 -0.379666 1.44622
Ar -0.175747 1.26179 -0.199292
Ar 0.682134 -0.640725 1.91132
Ar 0.233527 1.31195 1.62274
Ar 2.83838 1.95671 0.657651
Ar 1.01378 -1.52414 -0.96499
Ar 1.48475 -0.654706 0.938899
Ar 0.79445 0.574433 -1.69156
Ar 0.799869 -0.921635 -0.160289
15

Ar -1.81321 1.73766 -0.721617
Ar -1.47449 -0.382544 -0.989029
Ar -0.174573 -0.051684 -0.664343
Ar -0.0990118 -0.204819 1.08295
Ar 0.634449 1.02423 0.252631
Ar -1.58183 0.444985 1.92801
Ar -1.28348 -0.367706 1.4462
Ar -0.192037 1.25408 -0.209944
Ar 0.680725 -0.630387 1.93159
Ar 0.222354 1.30117 1.62111
Ar 2.85973 1.9329 0.634568
Ar 1.01074 -1.5255 -0.973318
Ar 1.46439 -0.653663 0.936736
Ar 0.804071 0.54925 -1.67205
Ar 0.803935 -0.901723 -0.167956
15

Ar -1.80494 1.73102 -0.694291
Ar -1.48249 -0.381354 -0.971652
Ar -0.137144 -0.0502328 -0.679427
Ar -0.105146 -0.179003 1.06803
Ar 0.618044 1.03897 0.255998
Ar -1.57728 0.434552 1.92437
Ar -1.28516 -0.356542 1.44577
Ar -0.209176 1.2467 -0.221121
Ar 0.679314 -0.620341 1.95202
Ar 0.211028 1.29068 1.61941
Ar 2.88102 1.90914 0.611584
Ar 1.00778 -1.5273 -0.982176
Ar 1.44418 -0.652664 0.934496
Ar 0.813888 0.524127 -1.6523
Ar 0.80786 -0.881508 -0.175161
15

Ar -1.79663 1.72433 -0.667017
Ar -1.49054 -0.380248 -0.954143
Ar -0.0998043 -0.0488397 -0.694539
Ar -0.111288 -0.15316 1.05291
Ar 0.602599 1.05354 0.259816
Ar -1.57306 0.425119 1.92117
Ar -1.28664 -0.346289 1.44484
Ar -0.227139 1.23962 -0.232842
Ar 0.677876 -0.610608 1.97257
Ar 0.199575 1.28046 1.61767
Ar 2.90223 1.88543 0.588724
Ar 1.00489 -1.52951 -0.991515
Ar 1.42413 -0.651711 0.932198
Ar 0.823896 0.49914 -1.63234
Ar 0.811671 -0.861027 -0.181948
15

Ar -1.78829 1.71757 -0.639807
Ar -1.49864 -0.379217 -0.936505
Ar -0.0625945 -0.0475009 -0.70968
Ar -0.117421 -0.127305 1.03761
Ar 0.588087 1.06799 0.264076
Ar -1.56919 0.416787 1.9185
Ar -1.28787 -0.337059 1.44334
Ar -0.245879 1.2328 -0.245118
Ar 0.676387 -0.601216 1.99318
Ar 0.188018 1.27048 1.61592
Ar 2.92337 1.8618 0.566015
Ar 1.00208 -1.53213 -1.00129
Ar 1.40423 -0.650807 0.929858
Ar 0.834098 0.474368 -1.6122
Ar 0.815396 -0.840322 -0.188361
15

Ar -1.77997 1.71077 -0.612677
Ar -1.50677 -0.378255 -0.918745
Ar -0.025559 -0.0462091 -0.724843
Ar -0.123533 -0.101461 1.02217
Ar 0.574468 1.08236 0.26876
Ar -1.56572 0.409657 1.91644
Ar -1.28881 -0.328963 1.4412
Ar -0.265337 1.22619 -0.257954
Ar 0.674824 -0.592202 2.0138
Ar 0.176378 1.26072 1.6142
Ar 2.94442 1.83828 0.54349
Ar 0.999327 -1.53515 -1.01144
Ar 1.38449 -0.649953 0.927497
Ar 0.844506 0.4499 -1.59189
Ar 0.819062 -0.819437 -0.194437
15

Ar -1.77167 1.70392 -0.585643
Ar -1.51492 -0.377354 -0.900868
Ar 0.0112507 -0.0449531 -0.740017
Ar -0.129615 -0.0756458 1.00659
Ar 0.561693 1.09667 0.273841
Ar -1.56268 0.403819 1.91506
Ar -1.28944 -0.322101 1.43833
Ar -0.285437 1.21974 -0.271356
Ar 0.673167 -0.583615 2.03435
Ar 0.164669 1.25118 1.61252
Ar 2.96537 1.81489 0.521189
Ar 0.996635 -1.53856 -1.02194
Ar 1.36491 -0.649153 0.925134
Ar 0.855143 0.425842 -1.57144
Ar 0.8227 -0.798421 -0.200211
15

Ar -1.76342 1.69703 -0.558725
Ar -1.52307 -0.376509 -0.882878
Ar 0.0477742 -0.0437187 -0.755183
Ar -0.13566 -0.0498748 0.990879
Ar 0.549708 1.11096 0.279284
Ar -1.56012 0.399345 1.91445
Ar -1.28972 -0.316557 1.43468
Ar -0.306094 1.2134 -0.285329
Ar 0.671395 -0.575511 2.05478
Ar 0.152905 1.24184 1.61092
Ar 2.9862 1.79165 0.499157
Ar 0.993999 -1.54236 -1.03273
Ar 1.34549 -0.64841 0.92279
Ar 0.866046 0.402292 -1.55085
Ar 0.826339 -0.777324 -0.205708
15

Ar -1.75528 1.6901 -0.531945
Ar -1.53121 -0.375714 -0.86478
Ar 0.0839386 -0.0424894 -0.770312
Ar -0.141664 -0.0241624 0.975057
Ar 0.538456 1.12526 0.285052
Ar -1.55804 0.396286 1.91466
Ar -1.28963 -0.312392 1.43018
Ar -0.327214 1.20713 -0.299881
Ar 0.669486 -0.567956 2.07501
Ar 0.141099 1.2327 1.60942
Ar 3.00691 1.7686 0.477451
Ar 0.991417 -1.54654 -1.04377
Ar 1.32623 -0.647725 0.920485
Ar 0.877266 0.379359 -1.53014
Ar 0.830013 -0.756207 -0.210947
15

Ar -1.74726 1.68314 -0.505327
Ar -1.53934 -0.374965 -0.84658
Ar 0.119655 -0.0412472 -0.785366
Ar -0.147627 0.00147616 0.959129
Ar 0.52788 1.13959 0.291103
Ar -1.55648 0.394663 1.91573
Ar -1.28916 -0.309637 1.42482
Ar -0.348694 1.20086 -0.315029
Ar 0.667413 -0.561026 2.09495
Ar 0.129259 1.22376 1.60803
Ar 3.02747 1.74578 0.456139
Ar 0.988891 -1.55108 -1.05503
Ar 1.30713 -0.647102 0.918241
Ar 0.888875 0.357164 -1.50933
Ar 0.833756 -0.735128 -0.215937
15

Ar -1.73941 1.67617 -0.478894
Ar -1.54744 -0.374259 -0.828282
Ar 0.154813 -0.0399744 -0.800289
Ar -0.153548 0.0270248 0.943099
Ar 0.517927 1.15399 0.297394
Ar -1.55541 0.394468 1.91767
Ar -1.28832 -0.308294 1.41857
Ar -0.37043 1.19454 -0.3308
Ar 0.66515 -0.554805 2.11452
Ar 0.117395 1.21501 1.60679
Ar 3.04788 1.72321 0.4353
Ar 0.986419 -1.55598 -1.06647
Ar 1.28818 -0.646545 0.916077
Ar 0.900968 0.335836 -1.48847
Ar 0.837604 -0.714145 -0.22068
15

Ar -1.73179 1.66918 -0.452671
Ar -1.55551 -0.373593 -0.809893
Ar 0.189276 -0.0386546 -0.815008
Ar -0.159431 0.0524668 0.926974
Ar 0.50855 1.16846 0.303882
Ar -1.55483 0.39566 1.92049
Ar -1.28711 -0.308332 1.41144
Ar -0.392315 1.1881 -0.347232
Ar 0.662664 -0.549383 2.13363
Ar 0.105515 1.20646 1.60571
Ar 3.0681 1.70096 0.415027
Ar 0.984001 -1.56122 -1.07806
Ar 1.26939 -0.646056 0.914014
Ar 0.91367 0.315515 -1.46759
Ar 0.841593 -0.693315 -0.225164
15

Ar -1.72444 1.6622 -0.426682
Ar -1.56355 -0.372964 -0.791417
Ar 0.222875 -0.0372761 -0.829429
Ar -0.165279 0.077784 0.910755
Ar 0.499708 1.18303 0.310526
Ar -1.55473 0.39817 1.92415
Ar -1.28555 -0.309694 1.40347
Ar -0.41424 1.18146 -0.364384
Ar 0.659921 -0.544851 2.15215
Ar 0.093625 1.19811 1.60481
Ar 3.08814 1.67907 0.395425
Ar 0.981637 -1.56681 -1.08978
Ar 1.25075 -0.645638 0.912071
Ar 0.927142 0.296353 -1.44675
Ar 0.845763 -0.672698 -0.229368
15

Ar -1.71743 1.65523 -0.40095
Ar -1.57153 -0.372371 -0.772861
Ar 0.255397 -0.035833 -0.843426
Ar -0.171098 0.102957 0.894445
Ar 0.491364 1.19772 0.317285
Ar -1.55505 0.40191 1.92861
Ar -1.28369 -0.312308 1.39469
Ar -0.436101 1.17454 -0.382327
Ar 0.656886 -0.541299 2.17
Ar 0.081731 1.18997 1.60411
Ar 3.10797 1.65762 0.376613
Ar 0.979329 -1.57274 -1.10159
Ar 1.23226 -0.645297 0.910258
Ar 0.941586 0.278505 -1.42605
Ar 0.850153 -0.652356 -0.23326
15

Ar -1.71082 1.64828 -0.375497
Ar -1.57946 -0.371813 -0.754229
Ar 0.286583 -0.0343284 -0.856843
Ar -0.176894 0.127966 0.878047
Ar 0.483494 1.21252 0.324125
Ar -1.55578 0.406777 1.93382
Ar -1.28155 -0.316079 1.38518
Ar -0.457799 1.16728 -0.401151
Ar 0.653522 -0.53881 2.18704
Ar 0.0698384 1.18203 1.60364
Ar 3.12759 1.63667 0.358721
Ar 0.977078 -1.57899 -1.11347
Ar 1.21391 -0.645035 0.908589
Ar 0.957256 0.262131 -1.40562
Ar 0.854801 -0.632349 -0.236797
15

Ar -1.70467 1.64138 -0.350339
Ar -1.58733 -0.371291 -0.735525
Ar 0.316117 -0.0327746 -0.869493
Ar -0.182675 0.152789 0.86156
Ar 0.476077 1.22746 0.33101
Ar -1.55686 0.412657 1.9397
Ar -1.27917 -0.320903 1.37499
Ar -0.479248 1.15959 -0.420944
Ar 0.649795 -0.537453 2.20317
Ar 0.0579523 1.1743 1.6034
Ar 3.14699 1.61628 0.341885
Ar 0.974884 -1.58558 -1.12541
Ar 1.1957 -0.644856 0.907079
Ar 0.974456 0.247386 -1.38561
Ar 0.859747 -0.61274 -0.239926
15

Ar -1.69904 1.63453 -0.325487
Ar -1.59512 -0.370812 -0.716754
Ar 0.34363 -0.0311918 -0.881163
Ar -0.188449 0.177403 0.844983
Ar 0.469104 1.24255 0.337913
Ar -1.55825 0.419439 1.94618
Ar -1.27659 -0.326674 1.36421
Ar -0.500376 1.1514 -0.441811
Ar 0.645676 -0.53728 2.21828
Ar 0.0460775 1.16679 1.6034
Ar 3.16618 1.59652 0.32624
Ar 0.97275 -1.59249 -1.13737
Ar 1.17762 -0.644764 0.905746
Ar 0.993539 0.234415 -1.36623
Ar 0.865027 -0.593588 -0.242584
15

Ar -1.69401 1.62776 -0.300943
Ar -1.60284 -0.370377 -0.697919
Ar 0.368717 -0.0296015 -0.891633
Ar -0.194225 0.201783 0.828313
Ar 0.46257 1.25778 0.344806
Ar -1.55991 0.42701 1.95318
Ar -1.27385 -0.333289 1.35291
Ar -0.521133 1.14264 -0.463863
Ar 0.641144 -0.53832 2.23228
Ar 0.0342185 1.15951 1.60367
Ar 3.18519 1.57746 0.311909
Ar 0.970676 -1.59973 -1.14936
Ar 1.15966 -0.644763 0.904604
Ar 1.01489 0.223338 -1.3477
Ar 0.870677 -0.574951 -0.244704
15

Ar -1.68962 1.62111 -0.276703
Ar -1.61048 -0.370006 -0.679023
Ar 0.390971 -0.0280149 -0.900707
Ar -0.200011 0.225903 0.811548
Ar 0.456479 1.27319 0.351668
Ar -1.56181 0.435269 1.96065
Ar -1.27098 -0.340652 1.34115
Ar -0.541495 1.13326 -0.487197
Ar 0.636189 -0.540579 2.24507
Ar 0.0223795 1.15244 1.60422
Ar 3.20404 1.55912 0.298992
Ar 0.968666 -1.60729 -1.16136
Ar 1.14183 -0.644858 0.903667
Ar 1.03889 0.214237 -1.33022
Ar 0.876727 -0.556882 -0.246213
15

Ar -1.68593 1.6146 -0.252751
Ar -1.618 -0.369709 -0.66007
Ar 0.410018 -0.026417 -0.908252
Ar -0.205816 0.249737 0.794685
Ar 0.450842 1.28876 0.358481
Ar -1.56391 0.444124 1.9685
Ar -1.26801 -0.348675 1.329
Ar -0.56146 1.12324 -0.511884
Ar 0.630809 -0.544039 2.25661
Ar 0.0105644 1.14561 1.60508
Ar 3.22277 1.54153 0.28755
Ar 0.966721 -1.61517 -1.17336
Ar 1.12411 -0.645051 0.902948
Ar 1.06586 0.207136 -1.31396
Ar 0.883208 -0.539428 -0.247039
15

Ar -1.68297 1.60823 -0.229068
Ar -1.6254 -0.369488 -0.64108
Ar 0.425598 -0.0247517 -0.914231
Ar -0.211649 0.273255 0.777723
Ar 0.445678 1.30452 0.365232
Ar -1.56617 0.453493 1.97668
Ar -1.26496 -0.35728 1.31655
Ar -0.581054 1.11256 -0.53796
Ar 0.625018 -0.548658 2.26685
Ar -0.001223 1.13901 1.60627
Ar 3.24143 1.52471 0.2776
Ar 0.964843 -1.62337 -1.18534
Ar 1.10649 -0.645347 0.902458
Ar 1.096 0.201989 -1.29901
Ar 0.890142 -0.522627 -0.247113
15

Ar -1.68078 1.60204 -0.205626
Ar -1.63266 -0.369347 -0.62206
Ar 0.437622 -0.0229166 -0.918719
Ar -0.217516 0.296429 0.760659
Ar 0.44101 1.32047 0.371909
Ar -1.56856 0.463303 1.98512
Ar -1.26187 -0.366398 1.30383
Ar -0.600317 1.10125 -0.565421
Ar 0.618838 -0.554379 2.27578
Ar -0.0129793 1.13264 1.60779
Ar 3.26006 1.50862 0.269106
Ar 0.963034 -1.63189 -1.19731
Ar 1.08898 -0.64575 0.90221
Ar 1.12935 0.198676 -1.28536
Ar 0.897552 -0.50651 -0.246375
15

Ar -1.67935 1.59603 -0.182394
Ar -1.63976 -0.369293 -0.603008
Ar 0.44617 -0.0207714 -0.921887
Ar -0.223424 0.319226 0.743495
Ar 0.436871 1.33662 0.378508
Ar -1.57106 0.473494 1.99379
Ar -1.25873 -0.375969 1.29091
Ar -0.619303 1.08935 -0.59422
Ar 0.612299 -0.561131 2.28341
Ar -0.0247014 1.1265 1.60968
Ar 3.27869 1.49325 0.261987
Ar 0.961298 -1.64072 -1.20925
Ar 1.07156 -0.646264 0.902213
Ar 1.16577 0.197012 -1.27291
Ar 0.905454 -0.491092 -0.244777
15

Ar -1.67869 1.5902 -0.159337
Ar -1.64671 -0.36933 -0.583922
Ar 0.451475 -0.0181588 -0.923967
Ar -0.229375 0.341612 0.726233
Ar 0.433297 1.35299 0.385026
Ar -1.57363 0.484012 2.00263
Ar -1.25558 -0.385941 1.27781
Ar -0.63807 1.07693 -0.624275
Ar 0.605437 -0.568835 2.28977
Ar -0.036386 1.1206 1.61194
Ar 3.29734 1.47854 0.256115
Ar 0.959636 -1.64987 -1.22117
Ar 1.05423 -0.646892 0.902478
Ar 1.20495 0.196775 -1.2615
Ar 0.913858 -0.476382 -0.242289
15

Ar -1.67878 1.58456 -0.136421
Ar -1.65348 -0.369466 -0.5648
Ar 0.453871 -0.0149289 -0.925208
Ar -0.235371 0.363551 0.708882
Ar 0.430333 1.36958 0.391467
Ar -1.57625 0.494812 2.01159
Ar -1.25241 -0.396269 1.26458
Ar -0.656672 1.06404 -0.655477
Ar 0.598291 -0.57741 2.29491
Ar -0.0480306 1.11492 1.61458
Ar 3.31599 1.46447 0.251335
Ar 0.958052 -1.65934 -1.23305
Ar 1.03697 -0.647631 0.903013
Ar 1.24649 0.197734 -1.25096
Ar 0.922767 -0.462371 -0.2389
15

Ar -1.67959 1.57912 -0.113614
Ar -1.66006 -0.36971 -0.545635
Ar 0.453727 -0.0109594 -0.92584
Ar -0.241411 0.384999 0.691453
Ar 0.428026 1.38639 0.397838
Ar -1.5789 0.505858 2.02064
Ar -1.24924 -0.406917 1.25123
Ar -0.67516 1.05076 -0.687701
Ar 0.590895 -0.586776 2.2989
Ar -0.0596325 1.10945 1.61762
Ar 3.33462 1.45099 0.247471
Ar 0.956548 -1.66912 -1.24489
Ar 1.01978 -0.648474 0.903827
Ar 1.28999 0.199672 -1.24113
Ar 0.932178 -0.449036 -0.23462
15

Ar -1.68107 1.57385 -0.0908839
Ar -1.66644 -0.370071 -0.526422
Ar 0.451407 -0.00616604 -0.926054
Ar -0.247488 0.405907 0.673958
Ar 0.426429 1.40345 0.404148
Ar -1.58157 0.517118 2.02972
Ar -1.24607 -0.41785 1.2378
Ar -0.69357 1.03717 -0.720818
Ar 0.583285 -0.596855 2.30179
Ar -0.0711894 1.1042 1.62106
Ar 3.35316 1.43807 0.244341
Ar 0.955128 -1.6792 -1.25669
Ar 1.00265 -0.649425 0.904928
Ar 1.33502 0.202401 -1.23186
Ar 0.94208 -0.436343 -0.229482
15

Ar -1.68319 1.56877 -0.068206
Ar -1.67259 -0.370561 -0.507151
Ar 0.447241 -0.000504633 -0.925999
Ar -0.253591 0.426221 0.656415
Ar 0.425597 1.42076 0.410413
Ar -1.58422 0.528569 2.03881
Ar -1.2429 -0.429041 1.2243
Ar -0.711925 1.02332 -0.754699
Ar 0.575488 -0.607572 2.30368
Ar -0.0826992 1.09915 1.62489
Ar 3.37154 1.4257 0.241764
Ar 0.953795 -1.68959 -1.26844
Ar 0.985561 -0.650488 0.906324
Ar 1.38121 0.205766 -1.22302
Ar 0.952452 -0.424249 -0.223535
15

Ar -1.6859 1.56387 -0.045558
Ar -1.67849 -0.371194 -0.487812
Ar 0.441515 0.00603349 -0.925783
Ar -0.259703 0.445871 0.638852
Ar 0.425588 1.43834 0.416651
Ar -1.58684 0.540192 2.04786
Ar -1.23974 -0.440463 1.21076
Ar -0.730244 1.00929 -0.789221
Ar 0.567527 -0.618855 2.30463
Ar -0.0941598 1.09429 1.62912
Ar 3.38965 1.41389 0.239562
Ar 0.952551 -1.70029 -1.28015
Ar 0.968515 -0.651666 0.90802
Ar 1.42824 0.209642 -1.21454
Ar 0.963266 -0.412708 -0.216846
15

Ar -1.68915 1.55913 -0.0229218
Ar -1.68413 -0.371984 -0.468391
Ar 0.434471 0.0134284 -0.925482
Ar -0.265802 0.464774 0.621303
Ar 0.426457 1.45621 0.422883
Ar -1.58941 0.551972 2.05681
Ar -1.23659 -0.452092 1.19718
Ar -0.748542 0.995135 -0.824268
Ar 0.55942 -0.630638 2.30473
Ar -0.105569 1.08961 1.63375
Ar 3.40738 1.40267 0.237566
Ar 0.951401 -1.71128 -1.2918
Ar 0.951499 -0.652961 0.910022
Ar 1.47583 0.213932 -1.20635
Ar 0.97449 -0.401666 -0.209489
15

Ar -1.69289 1.55455 -0.000283383
Ar -1.68948 -0.372948 -0.448872
Ar 0.426314 0.0216396 -0.925144
Ar -0.271858 0.482826 0.603812
Ar 0.428255 1.4744 0.429132
Ar -1.5919 0.563903 2.06562
Ar -1.23344 -0.463907 1.18358
Ar -0.766822 0.980894 -0.859734
Ar 0.551181 -0.642857 2.30407
Ar -0.116925 1.0851 1.63875
Ar 3.42463 1.39211 0.235615
Ar 0.950347 -1.72258 -1.3034
Ar 0.934501 -0.654377 0.912333
Ar 1.52378 0.21856 -1.19838
Ar 0.986086 -0.391066 -0.201548
15

Ar -1.69709 1.55012 0.0223681
Ar -1.69452 -0.374104 -0.429238
Ar 0.417214 0.0306125 -0.924803
Ar -0.277833 0.499899 0.586436
Ar 0.431026 1.49293 0.435423
Ar -1.5943 0.57598 2.07422
Ar -1.23031 -0.475894 1.16996
Ar -0.785085 0.966614 -0.895521
Ar 0.542819 -0.655454 2.30272
Ar -0.128226 1.08074 1.64412
Ar 3.44127 1.38228 0.233551
Ar 0.949393 -1.73417 -1.31495
Ar 0.917512 -0.655915 0.914955
Ar 1.57188 0.223462 -1.19059
Ar 0.998012 -0.380853 -0.193107
15

Ar -1.70169 1.54582 0.0450408
Ar -1.69923 -0.375473 -0.409471
Ar 0.407314 0.0402848 -0.924477
Ar -0.283681 0.515836 0.569243
Ar 0.434804 1.51181 0.441781
Ar -1.59658 0.588206 2.08255
Ar -1.22718 -0.488039 1.15635
Ar -0.803321 0.952332 -0.93154
Ar 0.534339 -0.668373 2.30075
Ar -0.139468 1.07652 1.64983
Ar 3.45719 1.37332 0.231224
Ar 0.948542 -1.74605 -1.32644
Ar 0.900521 -0.657576 0.917887
Ar 1.61998 0.228585 -1.18293
Ar 1.01022 -0.370971 -0.184248
15

Ar -1.70666 1.54165 0.0677408
Ar -1.70359 -0.377073 -0.38955
Ar 0.396738 0.0505906 -0.924179
Ar -0.289352 0.530447 0.552313
Ar 0.439609 1.53108 0.448231
Ar -1.59872 0.60059 2.09051
Ar -1.22406 -0.500329 1.14274
Ar -0.821513 0.938085 -0.967704
Ar 0.525746 -0.681562 2.29825
Ar -0.150648 1.07244 1.65587
Ar 3.47228 1.36539 0.228484
Ar 0.947798 -1.75822 -1.33787
Ar 0.883517 -0.659363 0.921125
Ar 1.66794 0.233882 -1.17536
Ar 1.02268 -0.36137 -0.17505
15

Ar -1.71196 1.53761 0.0904724
Ar -1.70759 -0.378925 -0.369458
Ar 0.385598 0.0614638 -0.923915
Ar -0.29479 0.543512 0.535738
Ar 0.445446 1.55073 0.454796
Ar -1.60073 0.613145 2.098
Ar -1.22094 -0.512753 1.12915
Ar -0.839632 0.923904 -1.00393
Ar 0.517042 -0.694974 2.29528
Ar -0.161762 1.06849 1.66221
Ar 3.48646 1.3587 0.225185
Ar 0.947163 -1.77067 -1.34924
Ar 0.86649 -0.661275 0.924666
Ar 1.71565 0.239302 -1.16782
Ar 1.03534 -0.352002 -0.165583
15

Ar -1.71758 1.53367 0.113237
Ar -1.71121 -0.381048 -0.349178
Ar 0.373984 0.0728401 -0.923687
Ar -0.299935 0.554785 0.519618
Ar 0.452304 1.57078 0.461494
Ar -1.60259 0.62589 2.1049
Ar -1.21782 -0.525301 1.11559
Ar -0.857637 0.909822 -1.04012
Ar 0.508225 -0.708564 2.2919
Ar -0.172804 1.06465 1.66882
Ar 3.49964 1.35347 0.221187
Ar 0.946639 -1.78339 -1.36056
Ar 0.849431 -0.663311 0.9285
Ar 1.76298 0.244779 -1.16024
Ar 1.04815 -0.342825 -0.155912
15

Ar -1.72347 1.52985 0.136026
Ar -1.71444 -0.383459 -0.328694
Ar 0.361975 0.0846588 -0.923498
Ar -0.304735 0.564007 0.504053
Ar 0.460156 1.59124 0.468343
Ar -1.60433 0.638851 2.11108
Ar -1.21469 -0.537968 1.10207
Ar -0.87547 0.895871 -1.07619
Ar 0.499296 -0.722293 2.28818
Ar -0.183769 1.06091 1.67567
Ar 3.51178 1.34996 0.216359
Ar 0.946231 -1.79636 -1.37181
Ar 0.83233 -0.665471 0.932617
Ar 1.80984 0.250254 -1.15256
Ar 1.06107 -0.3338 -0.146091
15

Ar -1.72962 1.52613 0.158838
Ar -1.71727 -0.386173 -0.307998
Ar 0.349635 0.0968631 -0.923347
Ar -0.309148 0.570928 0.489139
Ar 0.468961 1.61211 0.475353
Ar -1.60596 0.652056 2.11637
Ar -1.21157 -0.550746 1.0886
Ar -0.893051 0.882087 -1.11202
Ar 0.490253 -0.736124 2.28415
Ar -0.194644 1.05728 1.68272
Ar 3.52285 1.34842 0.21059
Ar 0.945939 -1.8096 -1.383
Ar 0.815179 -0.66775 0.937002
Ar 1.85615 0.255663 -1.14468
Ar 1.07407 -0.324894 -0.136166
15

Ar -1.73601 1.5225 0.181677
Ar -1.7197 -0.389201 -0.287086
Ar 0.337025 0.109401 -0.923234
Ar -0.31315 0.575339 0.474952
Ar 0.478666 1.63337 0.482534
Ar -1.60755 0.665536 2.12057
Ar -1.20843 -0.563632 1.07519
Ar -0.910269 0.86851 -1.1475
Ar 0.481094 -0.750027 2.27988
Ar -0.205415 1.05375 1.68996
Ar 3.53286 1.34909 0.203793
Ar 0.945765 -1.82309 -1.39413
Ar 0.797972 -0.670147 0.941639
Ar 1.90182 0.26093 -1.13651
Ar 1.08709 -0.316075 -0.126176
15

Ar -1.74262 1.51897 0.204541
Ar -1.72172 -0.392548 -0.26596
Ar 0.324193 0.122226 -0.923163
Ar -0.316738 0.577103 0.461539
Ar 0.489211 1.655 0.48989
Ar -1.60922 0.679323 2.12347
Ar -1.20528 -0.576623 1.06185
Ar -0.926976 0.855184 -1.18247
Ar 0.471817 -0.763972 2.27541
Ar -0.21607 1.05031 1.69733
Ar 3.54185 1.3521 0.195918
Ar 0.945712 -1.83683 -1.40521
Ar 0.780709 -0.672655 0.94651
Ar 1.94681 0.265973 -1.12796
Ar 1.10011 -0.307318 -0.116153
15

Ar -1.74944 1.51552 0.227433
Ar -1.72334 -0.396221 -0.244625
Ar 0.311186 0.135294 -0.923134
Ar -0.319929 0.576176 0.448916
Ar 0.500529 1.677 0.497422
Ar -1.61112 0.693446 2.12482
Ar -1.20214 -0.589714 1.0486
Ar -0.942972 0.842159 -1.21676
Ar 0.462419 -0.777937 2.27077
Ar -0.226594 1.04698 1.7048
Ar 3.54988 1.35753 0.186957
Ar 0.945781 -1.85082 -1.41622
Ar 0.763408 -0.67527 0.951595
Ar 1.99105 0.270701 -1.1189
Ar 1.11306 -0.298598 -0.106119
15

Ar -1.75644 1.51215 0.250354
Ar -1.72456 -0.400219 -0.223096
Ar 0.298042 0.148567 -0.923148
Ar -0.322761 0.572621 0.437059
Ar 0.512552 1.69932 0.505127
Ar -1.61349 0.707928 2.12436
Ar -1.19901 -0.602907 1.03545
Ar -0.958011 0.829487 -1.25018
Ar 0.4529 -0.7919 2.26601
Ar -0.236968 1.04375 1.71233
Ar 3.55705 1.36535 0.176941
Ar 0.945974 -1.86504 -1.42717
Ar 0.746066 -0.677983 0.956871
Ar 2.0345 0.275023 -1.10926
Ar 1.12592 -0.289895 -0.0960937
15

Ar -1.76361 1.50886 0.273302
Ar -1.72537 -0.404543 -0.20139
Ar 0.284795 0.161995 -0.923205
Ar -0.325283 0.566598 0.425918
Ar 0.525214 1.72194 0.513002
Ar -1.61661 0.722789 2.12184
Ar -1.19587 -0.6162 1.02242
Ar -0.971783 0.817224 -1.28252
Ar 0.443255 -0.805844 2.26116
Ar -0.247171 1.04062 1.71987
Ar 3.56344 1.37542 0.165936
Ar 0.946291 -1.87949 -1.43807
Ar 0.728682 -0.680787 0.962316
Ar 2.07715 0.278848 -1.09894
Ar 1.13864 -0.28119 -0.0860899
15

Ar -1.77095 1.50564 0.296279
Ar -1.72577 -0.409189 -0.179531
Ar 0.271477 0.175548 -0.923307
Ar -0.327548 0.55834 0.41542
Ar 0.538447 1.74482 0.521039
Ar -1.62083 0.738043 2.117
Ar -1.19272 -0.629592 1.00953
Ar -0.983929 0.80542 -1.31356
Ar 0.433485 -0.819755 2.25625
Ar -0.25718 1.0376 1.72739
Ar 3.56917 1.38755 0.154033
Ar 0.946733 -1.89414 -1.44891
Ar 0.711258 -0.683673 0.967907
Ar 2.11896 0.282088 -1.08788
Ar 1.15118 -0.272454 -0.0761175
15

Ar -1.77843 1.50249 0.319283
Ar -1.72579 -0.41415 -0.157546
Ar 0.258125 0.189199 -0.923453
Ar -0.32961 0.548122 0.405482
Ar 0.552192 1.76792 0.529232
Ar -1.62655 0.753705 2.10963
Ar -1.18955 -0.643079 0.996788
Ar -0.994058 0.794113 -1.34307
Ar 0.423586 -0.833621 2.25132
Ar -0.266965 1.0347 1.73484
Ar 3.57433 1.40149 0.141332
Ar 0.947302 -1.90901 -1.4597
Ar 0.693794 -0.686631 0.973619
Ar 2.15989 0.284666 -1.07603
Ar 1.1635 -0.263667 -0.0661832
15

Ar -1.78605 1.4994 0.342315
Ar -1.72542 -0.419421 -0.135466
Ar 0.244766 0.202921 -0.923646
Ar -0.331515 0.53623 0.396022
Ar 0.566388 1.79121 0.537568
Ar -1.63413 0.769797 2.0996
Ar -1.18635 -0.656664 0.984226
Ar -1.00179 0.783323 -1.37093
Ar 0.413559 -0.847433 2.24639
Ar -0.276496 1.03194 1.74217
Ar 3.57901 1.41697 0.127938
Ar 0.947998 -1.92407 -1.47043
Ar 0.676295 -0.689648 0.979429
Ar 2.19993 0.286512 -1.06335
Ar 1.17557 -0.254813 -0.0562918
15

Ar -1.79379 1.49637 0.365371
Ar -1.72466 -0.424994 -0.113326
Ar 0.231424 0.216695 -0.923887
Ar -0.333304 0.522941 0.386965
Ar 0.580984 1.81466 0.54602
Ar -1.64386 0.786347 2.08686
Ar -1.1831 -0.670352 0.971868
Ar -1.00681 0.773052 -1.39705
Ar 0.403401 -0.861186 2.24149
Ar -0.285737 1.02931 1.74934
Ar 3.58329 1.43376 0.113948
Ar 0.948822 -1.93934 -1.48109
Ar 0.658762 -0.692714 0.985312
Ar 2.23901 0.28757 -1.04983
Ar 1.18734 -0.245879 -0.0464464
15

Ar -1.80163 1.49339 0.388452
Ar -1.72353 -0.430861 -0.0911623
Ar 0.218138 0.230501 -0.924177
Ar -0.335007 0.508506 0.378244
Ar 0.595929 1.83824 0.554572
Ar -1.65594 0.803386 2.0715
Ar -1.1798 -0.684151 0.959741
Ar -1.00894 0.763281 -1.42148
Ar 0.393111 -0.874874 2.23664
Ar -0.294649 1.02684 1.75629
Ar 3.58724 1.45164 0.0994509
Ar 0.949774 -1.95478 -1.49167
Ar 0.641203 -0.695815 0.991246
Ar 2.27709 0.287796 -1.03545
Ar 1.19878 -0.236849 -0.0366494
15

Ar -1.80958 1.49047 0.411553
Ar -1.72203 -0.43701 -0.0690151
Ar 0.204939 0.244319 -0.924517
Ar -0.33665 0.493147 0.369808
Ar 0.61118 1.86192 0.563212
Ar -1.67039 0.820933 2.05371
Ar -1.17642 -0.698071 0.947884
Ar -1.00813 0.753981 -1.4444
Ar 0.38269 -0.888495 2.23186
Ar -0.303188 1.02455 1.76298
Ar 3.59091 1.4704 0.0845243
Ar 0.950853 -1.97041 -1.50218
Ar 0.62362 -0.698937 0.997207
Ar 2.31411 0.287163 -1.02018
Ar 1.20986 -0.22771 -0.0269026
15

Ar -1.81761 1.48758 0.43467
Ar -1.72018 -0.443433 -0.046927
Ar 0.191846 0.258135 -0.924909
Ar -0.338249 0.477048 0.361613
Ar 0.626696 1.88568 0.571925
Ar -1.68711 0.838993 2.03379
Ar -1.17294 -0.712123 0.936337
Ar -1.00455 0.74512 -1.46604
Ar 0.372137 -0.902048 2.22719
Ar -0.311303 1.02245 1.76933
Ar 3.59434 1.48989 0.0692342
Ar 0.95206 -1.98621 -1.51262
Ar 0.606022 -0.702064 1.00317
Ar 2.35006 0.285664 -1.00403
Ar 1.22055 -0.218448 -0.0172077
15

Ar -1.82572 1.48474 0.457798
Ar -1.71799 -0.450116 -0.0249436
Ar 0.178882 0.271933 -0.925351
Ar -0.339819 0.460367 0.353629
Ar 0.642442 1.90949 0.580697
Ar -1.7059 0.857545 2.01208
Ar -1.16934 -0.726323 0.92514
Ar -0.99845 0.736661 -1.48669
Ar 0.361453 -0.915535 2.22265
Ar -0.318939 1.02058 1.77529
Ar 3.59757 1.50998 0.0536366
Ar 0.953394 1.99784 -1.52299
Ar 0.588412 -0.705182 1.00913
Ar 2.38495 0.283313 -0.986965
Ar 1.23082 -0.209051 -0.0075667
15

Ar -1.83388 1.48194 0.480929
Ar -1.7155 -0.457045 -0.00311353
Ar 0.166068 0.2857 -0.925845
Ar -0.341369 0.44323 0.345832
Ar 0.658386 1.93332 0.589516
Ar -1.72647 0.876548 1.98892
Ar -1.16559 -0.740688 0.914337
Ar -0.990227 0.728563 -1.50661
Ar 0.350642 -0.928958 2.21824
Ar -0.326029 1.01897 1.78078
Ar 3.60063 1.53056 0.0377788
Ar 0.954852 1.98172 -1.53328
Ar 0.570797 -0.708273 1.01505
Ar 2.41881 0.280149 -0.969004
Ar 1.24065 -0.199505 0.00201791
15

Ar -1.8421 1.47918 0.504045
Ar -1.71273 -0.464201 0.0185065
Ar 0.153427 0.299424 -0.926388
Ar -0.342905 0.425744 0.338206
Ar 0.674501 1.95716 0.598367
Ar -1.74855 0.895945 1.96463
Ar -1.16166 -0.75524 0.903977
Ar -0.980306 0.720768 -1.52602
Ar 0.339707 -0.942321 2.21401
Ar -0.332498 1.01766 1.7857
Ar 3.60355 1.55154 0.0217002
Ar 0.956434 1.96547 -1.5435
Ar 0.553183 -0.711321 1.02092
Ar 2.4517 0.276226 -0.950159
Ar 1.25002 -0.189798 0.0115391
15

Ar -1.85036 1.47646 0.527126
Ar -1.70973 -0.471559 0.0398591
Ar 0.140985 0.313095 -0.926979
Ar -0.344431 0.407993 0.330741
Ar 0.690762 1.98098 0.607237
Ar -1.77187 0.915675 1.93949
Ar -1.1575 -0.770005 0.894115
Ar -0.969138 0.713202 -1.54502
Ar 0.328648 -0.955629 2.20995
Ar -0.33826 1.01671 1.78997
Ar 3.60634 1.57285 0.0054341
Ar 0.958137 1.94908 -1.55363
Ar 0.535575 -0.714306 1.02673
Ar 2.4837 0.271619 -0.930468
Ar 1.25892 -0.179919 0.0209931
15

Ar -1.85865 1.47378 0.550156
Ar -1.70656 -0.479093 0.0608866
Ar 0.128765 0.326704 -0.927614
Ar -0.34595 0.390046 0.323432
Ar 0.707149 2.00476 0.616112
Ar -1.79619 0.935673 1.91372
Ar -1.15308 -0.785011 0.884806
Ar -0.957164 0.705771 -1.56368
Ar 0.317465 -0.968888 2.20611
Ar -0.343214 1.01617 1.79345
Ar 3.60902 1.59443 -0.0109915
Ar 0.959957 1.93256 -1.56369
Ar 0.517977 -0.71721 1.03246
Ar 2.51491 0.266406 -0.909987
Ar 1.26734 -0.169858 0.0303769
15

Ar -1.86696 1.47113 0.573118
Ar -1.70328 -0.486775 0.081529
Ar 0.116792 0.340243 -0.928289
Ar -0.347461 0.371959 0.316278
Ar 0.723645 2.02849 0.624978
Ar -1.8213 0.95588 1.88751
Ar -1.14833 -0.800292 0.876112
Ar -0.944807 0.698358 -1.58199
Ar 0.30616 -0.982105 2.20248
Ar -0.347247 1.01613 1.79604
Ar 3.61161 1.61624 -0.0275532
Ar 0.96189 1.91593 -1.57366
Ar 0.500394 -0.720014 1.03809
Ar 2.54542 0.26067 -0.888787
Ar 1.27527 -0.159605 0.0396875
15

Ar -1.87529 1.46853 0.595987
Ar -1.69996 -0.494571 0.101725
Ar 0.105092 0.353707 -0.928998
Ar -0.348964 0.353777 0.309278
Ar 0.740235 2.05213 0.633821
Ar -1.84706 0.97624 1.86101
Ar -1.14322 -0.815887 0.868096
Ar -0.932463 0.690832 -1.59985
Ar 0.294734 -0.99528 2.1991
Ar -0.350238 1.01668 1.79758
Ar 3.61411 1.63824 -0.0442309
Ar 0.963933 1.8992 -1.58356
Ar 0.48283 -0.722697 1.04362
Ar 2.57532 0.254494 -0.866947
Ar 1.28272 -0.149152 0.048922
15

Ar -1.88361 1.46599 0.618732
Ar -1.69668 -0.502444 0.121412
Ar 0.0936902 0.367092 -0.929736
Ar -0.350456 0.335538 0.302438
Ar 0.756909 2.07568 0.642626
Ar -1.87331 0.996702 1.83433
Ar -1.13768 -0.831838 0.86082
Ar -0.920492 0.683047 -1.61717
Ar 0.283191 -1.00841 2.19597
Ar -0.352057 1.01789 1.79794
Ar 3.61654 1.6604 -0.061008
Ar 0.96608 1.88238 -1.59336
Ar 0.465287 -0.725241 1.04904
Ar 2.60469 0.247949 -0.844551
Ar 1.28968 -0.138493 0.0580777
15

Ar -1.89193 1.4635 0.641312
Ar -1.69352 -0.510351 0.140531
Ar 0.0826136 0.380396 -0.930495
Ar -0.351932 0.31727 0.295761
Ar 0.773658 2.09913 0.65138
Ar -1.89996 1.01721 1.80758
Ar -1.13165 -0.848191 0.854344
Ar -0.909214 0.674852 -1.63381
Ar 0.271533 -1.0215 2.19312
Ar -0.352581 1.01989 1.79697
Ar 3.6189 1.68271 -0.0778702
Ar 0.968324 1.86548 -1.60308
Ar 0.447767 -0.727626 1.05433
Ar 2.6336 0.241103 -0.82168
Ar 1.29618 -0.127622 0.0671519
15

Ar -1.90024 1.46109 0.663675
Ar -1.69058 -0.518247 0.159029
Ar 0.0718886 0.393619 -0.931267
Ar -0.353385 0.298999 0.289256
Ar 0.790477 2.12244 0.66007
Ar -1.92692 1.03772 1.78087
Ar -1.12507 -0.864992 0.848725
Ar -0.898904 0.666099 -1.64965
Ar 0.259763 -1.03456 2.19056
Ar -0.351699 1.02278 1.79457
Ar 3.62121 1.70514 -0.0948056
Ar 0.970659 1.8485 -1.61271
Ar 0.430269 -0.729831 1.05949
Ar 2.66209 0.234011 -0.798414
Ar 1.30221 -0.116539 0.0761426
15

Ar -1.90851 1.45878 0.685748
Ar -1.68795 -0.526088 0.176858
Ar 0.0615396 0.406765 -0.932046
Ar -0.354809 0.280743 0.282931
Ar 0.807362 2.14562 0.668682
Ar -1.95411 1.05818 1.7543
Ar -1.11789 -0.882291 0.844008
Ar -0.889778 0.656651 -1.66458
Ar 0.247881 -1.0476 2.1883
Ar -0.34933 1.02667 1.79065
Ar 3.62347 1.72769 -0.111804
Ar 0.973077 1.83148 -1.62223
Ar 0.412795 -0.731839 1.06451
Ar 2.69022 0.22672 -0.774825
Ar 1.30779 -0.105241 0.0850481
15

Ar -1.91673 1.4566 0.707436
Ar -1.68569 -0.533826 0.193984
Ar 0.0515896 0.419839 -0.932822
Ar -0.35619 0.262518 0.276798
Ar 0.824313 2.16865 0.677202
Ar -1.98148 1.07853 1.728
Ar -1.11004 -0.900133 0.840229
Ar -0.881992 0.646395 -1.67856
Ar 0.235892 -1.06062 2.18635
Ar -0.345432 1.03164 1.78515
Ar 3.62568 1.75033 -0.128858
Ar 0.975568 1.81441 -1.63165
Ar 0.395341 -0.733633 1.0694
Ar 2.718 0.21927 -0.750981
Ar 1.31294 -0.0937264 0.0938671
15

Ar -1.92488 1.45458 0.728611
Ar -1.6839 -0.541423 0.210385
Ar 0.0420656 0.432848 -0.933583
Ar -0.357517 0.244338 0.270869
Ar 0.841331 2.19152 0.68562
Ar 1.991 1.09871 1.7021
Ar -1.10148 -0.918559 0.837409
Ar -0.875633 0.635254 -1.69156
Ar 0.223798 -1.07363 2.18474
Ar -0.340009 1.03774 1.77809
Ar 3.62785 1.77306 -0.14596
Ar 0.978122 1.79732 -1.64096
Ar 0.377909 -0.735197 1.07413
Ar 2.74545 0.211691 -0.726944
Ar 1.31767 -0.081994 0.102599
15

Ar -1.93293 1.45279 0.749102
Ar -1.68263 -0.54884 0.226055
Ar 0.0329938 0.445805 -0.934321
Ar -0.358772 0.226211 0.26516
Ar 0.858417 2.21422 0.693924
Ar 1.96337 1.11863 1.67678
Ar -1.0922 -0.937598 0.835551
Ar -0.870723 0.623188 -1.70363
Ar 0.2116 -1.08665 2.18347
Ar -0.333116 1.04498 1.76952
Ar 3.62999 1.79586 -0.163105
Ar 0.980728 1.78021 -1.65014
Ar 0.360495 -0.736516 1.07872
Ar 2.77256 0.204007 -0.702772
Ar 1.32199 -0.0700438 0.111242
15

Ar -1.94083 1.45128 0.768679
Ar -1.68193 -0.556037 0.241005
Ar 0.0243995 0.458721 -0.935032
Ar -0.359933 0.208148 0.259691
Ar 0.875575 2.23676 0.702103
Ar 1.9356 1.13819 1.65228
Ar -1.08216 -0.957274 0.834641
Ar -0.867226 0.610197 -1.71486
Ar 0.199304 -1.09968 2.18254
Ar -0.324852 1.05333 1.75955
Ar 3.63209 1.81874 -0.180289
Ar 0.983372 1.76309 -1.65919
Ar 0.343099 -0.737579 1.08316
Ar 2.79933 0.196239 -0.678521
Ar 1.32593 -0.0578759 0.119797
15

Ar -1.94851 1.45014 0.787042
Ar -1.68182 -0.562991 0.255265
Ar 0.0163065 0.471615 -0.935717
Ar -0.360975 0.19016 0.254485
Ar 0.89281 2.25912 0.710149
Ar 1.90769 1.15727 1.62889
Ar -1.07137 -0.977596 0.834648
Ar -0.865065 0.596317 -1.72537
Ar 0.186912 -1.11273 2.18197
Ar -0.315347 1.06274 1.7483
Ar 3.63417 1.84168 -0.197508
Ar 0.98604 1.74599 -1.66808
Ar 0.325722 -0.738378 1.08745
Ar 2.82573 0.188402 -0.654244
Ar 1.32949 -0.0454913 0.128262
15

Ar -1.95585 1.44949 0.80381
Ar -1.68233 -0.569696 0.268877
Ar 0.00873639 0.484504 -0.936376
Ar -0.361864 0.172253 0.249572
Ar 0.910125 2.2813 0.718055
Ar 1.87956 1.17574 1.60699
Ar -1.05986 -0.998565 0.835527
Ar -0.864133 0.581611 -1.73527
Ar 0.174429 -1.1258 2.18176
Ar -0.30475 1.0731 1.73592
Ar 3.63622 1.86467 -0.214759
Ar 0.988715 1.72891 -1.6768
Ar 0.308366 -0.738905 1.0916
Ar 2.85173 0.180505 -0.629999
Ar 1.33269 -0.0328915 0.136639
15

Ar -1.96272 1.44948 0.818517
Ar -1.68347 -0.576157 0.281889
Ar 0.00170814 0.49741 -0.937012
Ar -0.362561 0.154427 0.24499
Ar 0.927524 2.30332 0.725813
Ar 1.85109 1.19343 1.58703
Ar -1.04766 -1.02018 0.837219
Ar -0.864312 0.566157 -1.74472
Ar 0.161857 -1.13891 2.18192
Ar -0.293214 1.08434 1.72257
Ar 3.63825 1.88772 -0.232043
Ar 0.991381 1.71188 -1.68533
Ar 0.291049 -0.739157 1.09562
Ar 2.8773 0.172558 -0.605845
Ar 1.33556 -0.0200782 0.144926
15

Ar -1.96889 1.45025 0.830641
Ar -1.68521 -0.58239 0.294361
Ar -0.0047629 0.510356 -0.937633
Ar -0.363016 0.136683 0.240784
Ar 0.945011 2.32519 0.733421
Ar 1.82212 1.21017 1.56951
Ar -1.03483 -1.04241 0.839657
Ar -0.86548 0.550039 -1.75383
Ar 0.149203 -1.15205 2.18243
Ar -0.280889 1.09633 1.7084
Ar 3.64025 1.91082 -0.249356
Ar 0.994014 1.6949 -1.69364
Ar 0.273777 -0.739133 1.09952
Ar 2.90236 0.164565 -0.58185
Ar 1.3381 -0.00705348 0.153124
15

Ar -1.97411 1.45196 0.839657
Ar -1.68752 -0.588414 0.306357
Ar -0.0106657 0.523364 -0.938247
Ar -0.363168 0.119018 0.237013
Ar 0.962586 2.3469 0.740874
Ar 1.79243 1.22578 1.55495
Ar -1.02141 -1.06526 0.84277
Ar -0.86752 0.533342 -1.76271
Ar 0.13647 -1.16524 2.18332
Ar -0.267913 1.10897 1.69352
Ar 3.64225 1.93395 -0.266699
Ar 0.996593 1.67799 -1.70169
Ar 0.25656 -0.738833 1.10329
Ar 2.92687 0.156531 -0.558089
Ar 1.34033 0.00618022 0.161232
15

Ar -1.97811 1.45471 0.845135
Ar -1.69037 -0.594259 0.317942
Ar -0.0159944 0.536459 -0.938865
Ar -0.36294 0.101428 0.233741
Ar 0.980251 2.36849 0.748172
Ar 1.7618 1.24014 1.54373
Ar -1.0075 -1.08867 0.846485
Ar -0.870327 0.516147 -1.77145
Ar 0.123663 -1.17847 2.18456
Ar -0.254408 1.12216 1.67807
Ar 3.64422 1.95712 -0.284072
Ar 0.999087 1.66117 -1.70946
Ar 0.239409 -0.738261 1.10697
Ar 2.95074 0.148463 -0.534652
Ar 1.34226 0.0196202 0.169251
15

Ar -1.98064 1.45853 0.846842
Ar -1.69372 -0.599953 0.329178
Ar -0.0207485 0.549664 -0.939499
Ar -0.362242 0.0839039 0.231046
Ar 0.998004 2.38996 0.755316
Ar 1.73001 1.25318 1.53604
Ar -0.99315 -1.11263 0.85073
Ar -0.873808 0.498524 -1.78012
Ar 0.110788 -1.19175 2.18617
Ar -0.240486 1.13582 1.66212
Ar 3.64619 1.98033 -0.301474
Ar 1.00146 1.64447 -1.71688
Ar 0.222339 -0.737422 1.11055
Ar 2.97387 0.140368 -0.511644
Ar 1.3439 0.0332634 0.177181
15

Ar -1.98154 1.46338 0.84481
Ar -1.69751 -0.605529 0.340124
Ar -0.0249337 0.563002 -0.940162
Ar -0.360962 0.0664322 0.229038
Ar 1.01584 2.41133 0.762307
Ar 1.697 1.26492 1.5318
Ar -0.978458 -1.1371 0.855438
Ar -0.87788 0.480536 -1.78878
Ar 0.0978497 -1.20509 2.18813
Ar -0.226259 1.14985 1.64576
Ar 3.64814 2.00356 -0.318906
Ar 1.00368 1.6279 -1.72391
Ar 0.20537 -0.736321 1.11405
Ar 2.99615 0.132259 -0.48919
Ar 1.34528 0.0471064 0.185022
15

Ar -1.98075 1.46914 0.839326
Ar -1.7017 -0.611016 0.350832
Ar -0.0285618 0.576491 -0.940866
Ar -0.35897 0.0489937 0.227844
Ar 1.03376 2.43262 0.76915
Ar 1.66278 1.27544 1.53065
Ar -0.963498 -1.16204 0.860543
Ar -0.882473 0.462237 -1.79746
Ar 0.0848542 -1.21847 2.19043
Ar -0.211806 1.1642 1.62906
Ar 3.65009 2.02681 -0.336368
Ar 1.00568 1.6115 -1.73044
Ar 0.188523 -0.734962 1.1175
Ar 3.01745 0.124152 -0.467437
Ar 1.3464 0.0611456 0.192773
15

Ar -1.97836 1.47565 0.830852
Ar -1.70625 -0.616443 0.36135
Ar -0.0316504 0.590148 -0.941623
Ar -0.356118 0.0315648 0.227615
Ar 1.05175 2.45385 0.77585
Ar 1.6275 1.28486 1.53203
Ar -0.948347 -1.18744 0.865988
Ar -0.887525 0.443672 -1.8062
Ar 0.0718071 -1.23191 2.19308
Ar -0.197192 1.1788 1.61207
Ar 3.65203 2.05008 -0.35386
Ar 1.0074 1.59531 -1.7364
Ar 0.171823 -0.733349 1.12091
Ar 3.03762 0.116075 -0.446554
Ar 1.34728 0.075377 0.200433
15

Ar -1.97453 1.48272 0.819923
Ar -1.7111 -0.621834 0.371716
Ar -0.0342223 0.603988 -0.942443
Ar -0.352242 0.0141282 0.228514
Ar 1.0698 2.47504 0.782415
Ar 1.59144 1.2933 1.53526
Ar -0.933063 -1.21326 0.871719
Ar -0.892985 0.42488 -1.81502
Ar 0.0587143 -1.24541 2.19606
Ar -0.182473 1.19361 1.59482
Ar 3.65396 2.07336 -0.371379
Ar 1.00874 1.57937 -1.74162
Ar 0.155298 -0.731489 1.12431
Ar 3.05651 0.108061 -0.426727
Ar 1.34792 0.0897961 0.207998
15

Ar -1.96946 1.49021 0.80705
Ar -1.71622 -0.62721 0.381965
Ar -0.0363053 0.618018 -0.943334
Ar -0.347169 -0.00335355 0.230711
Ar 1.08788 2.49619 0.788853
Ar 1.55493 1.30086 1.53967
Ar -0.917703 -1.2395 0.87769
Ar -0.898807 0.405895 -1.82394
Ar 0.0455817 -1.25895 2.19936
Ar -0.167696 1.20856 1.57735
Ar 3.65588 2.09662 -0.388927
Ar 1.00961 1.56373 -1.74594
Ar 0.138978 -0.729388 1.12771
Ar 3.07394 0.100157 -0.408152
Ar 1.34835 0.104398 0.215468
15

Ar -1.96337 1.498 0.792676
Ar -1.72157 -0.632589 0.392123
Ar -0.0379304 0.632245 -0.944302
Ar -0.340729 -0.0209264 0.234368
Ar 1.10598 2.51732 0.795174
Ar 1.5183 1.3076 1.54458
Ar -0.902327 -1.26612 0.883857
Ar -0.904952 0.386745 -1.83294
Ar 0.0324156 -1.27254 2.20297
Ar -0.152902 1.22363 1.55969
Ar 3.65779 2.11987 -0.406499
Ar 1.00986 1.54846 -1.74913
Ar 0.122892 -0.727055 1.13115
Ar 3.08974 0.0924242 -0.391023
Ar 1.34858 0.119178 0.222844
15

Ar -1.95643 1.50596 0.777153
Ar -1.72712 -0.637982 0.402212
Ar -0.0391313 0.64667 -0.945348
Ar -0.332771 -0.0386371 0.23962
Ar 1.12409 2.53845 0.801389
Ar 1.48192 1.31354 1.54935
Ar -0.886991 -1.29311 0.890181
Ar -0.911386 0.367454 -1.84204
Ar 0.019224 -1.28616 2.20688
Ar -0.138127 1.23879 1.54186
Ar 3.65969 2.14308 -0.424093
Ar 1.00933 1.53363 -1.7509
Ar 0.107073 -0.724496 1.13467
Ar 3.10379 0.0849342 -0.37551
Ar 1.34861 0.134133 0.230126
15

Ar -1.94882 1.51405 0.760755
Ar -1.73282 -0.643399 0.412247
Ar -0.0399432 0.661291 -0.946472
Ar -0.323187 -0.0565277 0.246552
Ar 1.1422 2.55957 0.807511
Ar 1.44611 1.31869 1.55337
Ar -0.871746 -1.32048 0.896629
Ar -0.918078 0.348043 -1.85124
Ar 0.0060139 -1.29983 2.21107
Ar -0.123402 1.254 1.52387
Ar 3.66159 2.16625 -0.441703
Ar 1.00787 1.51931 -1.7509
Ar 0.0915494 -0.72172 1.13829
Ar 3.11597 0.0777453 -0.361737
Ar 1.34847 0.149257 0.237315
15

Ar -1.94066 1.52219 0.743684
Ar -1.73865 -0.648842 0.422242
Ar -0.040402 0.676101 -0.947671
Ar -0.31192 -0.074628 0.255184
Ar 1.16029 2.58069 0.813553
Ar 1.41118 1.32304 1.55605
Ar -0.856631 -1.34822 0.90317
Ar -0.925004 0.32853 -1.86053
Ar -0.00720866 -1.31352 2.21552
Ar -0.108757 1.26924 1.50573
Ar 3.66347 2.18937 -0.459321
Ar 1.00532 1.50558 -1.74876
Ar 0.0763519 -0.718738 1.14205
Ar 3.12624 0.0709089 -0.349767
Ar 1.34815 0.164546 0.244412
15

Ar -1.93205 1.53035 0.726088
Ar -1.74457 -0.654312 0.432203
Ar -0.0405432 0.691087 -0.948942
Ar -0.298981 -0.0929492 0.265457
Ar 1.17834 2.60181 0.81953
Ar 1.37736 1.32656 1.55685
Ar -0.841681 -1.37632 0.909777
Ar -0.932142 0.308932 -1.86989
Ar -0.0204378 -1.32723 2.22021
Ar -0.0942181 1.28449 1.48744
Ar 3.66535 2.21245 -0.476933
Ar 1.00156 1.49248 -1.74408
Ar 0.0615071 -0.715565 1.14602
Ar 3.1346 0.0644626 -0.339595
Ar 1.34768 0.179992 0.251418
15

Ar -1.92309 1.53851 0.708079
Ar -1.75055 -0.659803 0.442135
Ar -0.0404018 0.706227 -0.950276
Ar -0.284444 -0.111479 0.277237
Ar 1.19635 2.62292 0.825459
Ar 1.34481 1.32927 1.55533
Ar -0.826923 -1.40477 0.916424
Ar -0.939471 0.289264 -1.87933
Ar -0.0336678 -1.34093 2.22513
Ar -0.0798104 1.29972 1.46901
Ar 3.6672 2.23548 -0.494528
Ar 0.996516 1.48003 -1.73654
Ar 0.0470412 -0.71221 1.15023
Ar 3.14114 0.0584265 -0.331149
Ar 1.34707 0.195589 0.258331
15

Ar -1.91382 1.54664 0.689734
Ar -1.75656 -0.665308 0.452037
Ar -0.0400118 0.721505 -0.951664
Ar -0.268436 -0.130179 0.290326
Ar 1.21428 2.64402 0.831358
Ar 1.31358 1.33122 1.5512
Ar -0.812376 -1.43357 0.92309
Ar -0.946976 0.26954 -1.88884
Ar -0.0468928 -1.35462 2.23026
Ar -0.0655576 1.31489 1.45044
Ar 3.66904 2.25846 -0.512087
Ar 0.990223 1.46821 -1.72592
Ar 0.0329751 -0.708686 1.15476
Ar 3.14597 0.0528021 -0.3243
Ar 1.34633 0.211329 0.265154
15

Ar -1.90431 1.55473 0.671112
Ar -1.76256 -0.670814 0.461907
Ar -0.0394064 0.736907 -0.953098
Ar -0.251122 -0.148989 0.304477
Ar 1.23212 2.6651 0.837244
Ar 1.28364 1.33248 1.54433
Ar -0.798053 -1.46272 0.929755
Ar -0.954644 0.249775 -1.8984
Ar -0.0601072 -1.36828 2.23556
Ar -0.0514827 1.32999 1.43173
Ar 3.67085 2.28137 -0.52959
Ar 0.982793 1.45696 -1.71216
Ar 0.0193244 -0.705031 1.15969
Ar 3.14926 0.0475744 -0.318886
Ar 1.34547 0.227205 0.271886
15

Ar -1.8946 1.56276 0.652258
Ar -1.76851 -0.676297 0.471738
Ar -0.0386181 0.752417 -0.954566
Ar -0.232685 -0.167829 0.319412
Ar 1.24983 2.68613 0.84314
Ar 1.25486 1.33313 1.5348
Ar -0.783959 -1.49221 0.936402
Ar -0.962461 0.229984 -1.908
Ar -0.073305 -1.38191 2.24101
Ar -0.0376087 1.345 1.41287
Ar 3.67264 2.30422 -0.547012
Ar 0.974409 1.44621 -1.6954
Ar 0.00609992 -0.701289 1.16509
Ar 3.15118 0.042716 -0.314725
Ar 1.3445 0.243209 0.278526
15

Ar -1.88472 1.57074 0.633204
Ar -1.77437 -0.681734 0.481519
Ar -0.0376787 0.768019 -0.956056
Ar -0.213309 -0.186603 0.334838
Ar 1.26738 2.7071 0.849069
Ar 1.22709 1.3333 1.52285
Ar -0.770096 -1.52201 0.943013
Ar -0.97042 0.21018 -1.91764
Ar -0.0864806 -1.3955 2.24656
Ar -0.023959 1.3599 1.39388
Ar 3.67439 2.32701 -0.56432
Ar 0.965291 1.43585 -1.67589
Ar -0.00669359 -0.697521 1.17108
Ar 3.15192 0.0381926 -0.311636
Ar 1.34343 0.259332 0.285075
15

Ar -1.87471 1.57865 0.613973
Ar -1.7801 -0.687101 0.491235
Ar -0.0366204 0.783693 -0.957554
Ar -0.193166 -0.205208 0.350456
Ar 1.28473 2.72799 0.855054
Ar 1.20019 1.33308 1.50881
Ar -0.756468 -1.55212 0.949574
Ar -0.978511 0.190372 -1.92731
Ar -0.099628 -1.40903 2.2522
Ar -0.0105587 1.37468 1.37475
Ar 3.67609 2.34972 -0.581478
Ar 0.95566 1.42579 -1.65401
Ar -0.0190581 -0.693792 1.17778
Ar 3.15164 0.0339669 -0.309453
Ar 1.34228 0.275567 0.29153
15

Ar -1.86457 1.58649 0.594585
Ar -1.78563 -0.692367 0.500868
Ar -0.0354759 0.799419 -0.959046
Ar -0.172404 -0.223534 0.365971
Ar 1.30182 2.74876 0.861127
Ar 1.17402 1.33255 1.49303
Ar -0.743077 -1.58249 0.95607
Ar -0.986729 0.170572 -1.93699
Ar -0.112741 -1.4225 2.25786
Ar 0.00256392 1.38932 1.35547
Ar 3.67775 2.37236 -0.598441
Ar 0.945716 1.41595 -1.63015
Ar -0.0310039 -0.690182 1.18533
Ar 3.1505 0.0300024 -0.308025
Ar 1.34104 0.291905 0.297891
15

Ar -1.85435 1.59425 0.575052
Ar -1.79091 -0.697497 0.510394
Ar -0.0342793 0.815178 -0.960517
Ar -0.151147 -0.241476 0.381096
Ar 1.31861 2.76938 0.867318
Ar 1.1485 1.3318 1.47589
Ar -0.729923 -1.6131 0.962486
Ar -0.99507 0.150789 -1.94669
Ar -0.125814 -1.43591 2.26349
Ar 0.0153762 1.40381 1.33606
Ar 3.67935 2.39492 -0.615159
Ar 0.935625 1.40628 -1.60469
Ar -0.0425514 -0.686773 1.19388
Ar 3.14862 0.0262654 -0.307224
Ar 1.33974 0.308335 0.304156
15

Ar -1.84406 1.60194 0.555387
Ar -1.79587 -0.702451 0.519783
Ar -0.033067 0.830947 -0.961949
Ar -0.129487 -0.258934 0.395554
Ar 1.33502 2.7898 0.873665
Ar 1.12359 1.33085 1.45769
Ar -0.717007 -1.6439 0.968809
Ar -1.00353 0.131034 -1.95638
Ar -0.13884 -1.44925 2.26905
Ar 0.0278391 1.41812 1.31651
Ar 3.68089 2.41741 -0.631573
Ar 0.925521 1.39674 -1.57796
Ar -0.0537333 -0.683648 1.20358
Ar 3.14611 0.0227262 -0.306942
Ar 1.33838 0.32485 0.310322
15

Ar -1.83371 1.60956 0.535595
Ar -1.80041 -0.707183 0.528999
Ar -0.0318783 0.846703 -0.963324
Ar -0.107483 -0.275821 0.409095
Ar 1.35097 2.80999 0.880211
Ar 1.09931 1.32976 1.43871
Ar -0.70434 -1.67484 0.975024
Ar -1.01211 0.111317 -1.96606
Ar -0.151813 -1.46252 2.27445
Ar 0.0399065 1.43224 1.29684
Ar 3.68236 2.43982 -0.647615
Ar 0.915509 1.38731 -1.55026
Ar -0.0645952 -0.680883 1.21459
Ar 3.14308 0.0193594 -0.30709
Ar 1.33698 0.341437 0.316386
15

Ar -1.82333 1.6171 0.515683
Ar -1.80444 -0.711642 0.537998
Ar -0.0307571 0.86242 -0.964622
Ar -0.0851656 -0.292073 0.421496
Ar 1.36637 2.82988 0.887006
Ar 1.07569 1.32852 1.41917
Ar -0.69194 -1.70587 0.981114
Ar -1.0208 0.091647 -1.97572
Ar -0.164728 -1.47572 2.27963
Ar 0.0515233 1.44615 1.27703
Ar 3.68374 2.46218 -0.663209
Ar 0.905675 1.37796 -1.52183
Ar -0.0751961 -0.67854 1.22706
Ar 3.1396 0.016144 -0.307596
Ar 1.33553 0.358086 0.322346
15

Ar -1.81293 1.62456 0.495654
Ar -1.80785 -0.715772 0.546728
Ar -0.0297526 0.878072 -0.965819
Ar -0.0625403 -0.307652 0.432586
Ar 1.38111 2.84943 0.894104
Ar 1.05283 1.32715 1.39925
Ar -0.679836 -1.73692 0.987064
Ar -1.02962 0.0720344 -1.98535
Ar -0.177581 -1.48888 2.2845
Ar 0.0626257 1.45983 1.25708
Ar 3.68504 2.48448 -0.678274
Ar 0.896094 1.36872 -1.49286
Ar -0.0856053 -0.676658 1.24107
Ar 3.13574 0.0130628 -0.3084
Ar 1.33405 0.374785 0.328197
15

Ar -1.80251 1.63195 0.475517
Ar -1.81051 -0.719513 0.55513
Ar -0.028921 0.893628 -0.966892
Ar -0.0395934 -0.32255 0.44225
Ar 1.39506 2.86856 0.901572
Ar 1.03083 1.32563 1.37912
Ar -0.668074 -1.76791 0.992856
Ar -1.03856 0.0524894 -1.99494
Ar -0.190367 -1.502 2.28899
Ar 0.0731414 1.47326 1.23701
Ar 3.68625 2.50675 -0.69272
Ar 0.886835 1.35958 -1.46352
Ar -0.0958971 -0.675251 1.2567
Ar 3.13154 0.0101021 -0.309455
Ar 1.33255 0.391523 0.333934
15

Ar -1.7921 1.63926 0.455274
Ar -1.81228 -0.722805 0.563136
Ar -0.0283263 0.909058 -0.967814
Ar -0.0163017 -0.336791 0.450437
Ar 1.40809 2.88723 0.909479
Ar 1.00986 1.32393 1.3589
Ar -0.656721 -1.79876 0.998471
Ar -1.04763 0.0330229 1.99551
Ar -0.203086 -1.51511 2.29298
Ar 0.0829928 1.4864 1.2168
Ar 3.68736 2.52901 -0.706457
Ar 0.877967 1.35056 -1.43395
Ar -0.106144 -0.674308 1.27394
Ar 3.12705 0.00725106 -0.310721
Ar 1.33104 0.408286 0.339552
15

Ar -1.7817 1.64651 0.434926
Ar -1.81302 -0.725587 0.570671
Ar -0.0280424 0.924329 -0.968556
Ar 0.00735806 -0.350422 0.457164
Ar 1.42005 2.90535 0.917905
Ar 0.990078 1.32203 1.3387
Ar -0.645867 -1.82937 1.00389
Ar -1.05683 0.0136459 1.98603
Ar -0.215738 -1.52824 2.29641
Ar 0.0921011 1.49925 1.19644
Ar 3.68838 2.55128 -0.719392
Ar 0.869564 1.34169 -1.40424
Ar -0.116409 -0.673797 1.29272
Ar 3.12231 0.00450139 -0.312167
Ar 1.32953 0.425063 0.345045
15

Ar -1.77132 1.6537 0.414472
Ar -1.81257 -0.727806 0.577658
Ar -0.0281535 0.939404 -0.96909
Ar 0.0314021 -0.363512 0.4625
Ar 1.4308 2.92289 0.926928
Ar 0.971692 1.31988 1.31863
Ar -0.635631 -1.85963 1.00909
Ar -1.06617 -0.00562971 1.97661
Ar -0.228328 -1.54144 2.29918
Ar 0.100395 1.51178 1.17592
Ar 3.68931 2.57361 -0.73143
Ar 0.861706 1.33298 -1.37451
Ar -0.126738 -0.673663 1.31293
Ar 3.11736 0.00184684 -0.313765
Ar 1.32803 0.441839 0.350407
15

Ar -1.76096 1.66082 0.39391
Ar -1.8108 -0.729417 0.584019
Ar -0.0287549 0.954248 -0.969385
Ar 0.0558348 -0.376137 0.466562
Ar 1.44019 2.93978 0.936631
Ar 0.954911 1.31741 1.29879
Ar -0.626167 -1.88943 1.01407
Ar -1.07567 -0.0247912 1.96727
Ar -0.240864 -1.55476 2.30122
Ar 0.107822 1.52397 1.15522
Ar 3.69015 2.59604 -0.742495
Ar 0.854485 1.32447 -1.34482
Ar -0.137158 -0.67384 1.33442
Ar 3.1122 -0.000717061 -0.315495
Ar 1.32655 0.458599 0.355628
15

Ar -1.75064 1.66788 0.373241
Ar -1.80757 -0.730392 0.589681
Ar -0.0299524 0.968825 -0.969412
Ar 0.0806467 -0.388376 0.469488
Ar 1.4481 2.95601 0.947087
Ar 0.939951 1.31453 1.27925
Ar -0.617665 -1.91864 1.01879
Ar -1.08533 -0.043825 1.95803
Ar -0.253357 -1.56824 2.30249
Ar 0.114364 1.53579 1.13431
Ar 3.69092 2.61861 -0.752532
Ar 0.847999 1.31619 -1.31524
Ar -0.147674 -0.674264 1.357
Ar 3.10688 -0.00319328 -0.317338
Ar 1.3251 0.475327 0.3607
15

Ar -1.74035 1.67489 0.352461
Ar -1.80281 -0.730721 0.594583
Ar -0.0318609 0.983098 -0.969147
Ar 0.105816 -0.400306 0.471428
Ar 1.45445 2.97155 0.958358
Ar 0.927017 1.31118 1.26012
Ar -0.610362 -1.9471 1.02327
Ar -1.09517 -0.0627164 1.94888
Ar -0.265822 -1.58195 2.30295
Ar 0.120052 1.54722 1.11314
Ar 3.69162 2.64137 -0.76151
Ar 0.842359 1.30818 -1.28584
Ar -0.158275 -0.674873 1.38051
Ar 3.1014 -0.00558341 -0.319279
Ar 1.32371 0.492004 0.365611
15

Ar -1.73011 1.68185 0.33157
Ar -1.79647 -0.730414 0.598682
Ar -0.0346007 0.997038 -0.968568
Ar 0.131313 -0.411995 0.47253
Ar 1.45919 2.98641 0.970488
Ar 0.916285 1.30726 1.24147
Ar -0.604534 -1.9747 1.02751
Ar -1.10521 -0.0814499 1.93985
Ar -0.278274 -1.59593 2.30259
Ar 0.124985 1.55824 1.09168
Ar 3.69229 2.66436 -0.769422
Ar 0.837678 1.30045 -1.25664
Ar -0.16893 -0.675612 1.40476
Ar 3.09579 -0.00788784 -0.321306
Ar 1.32237 0.508612 0.370349
15

Ar -1.71991 1.68877 0.310565
Ar -1.78853 -0.729503 0.601959
Ar -0.0382921 1.01062 -0.967662
Ar 0.157098 -0.423499 0.472929
Ar 1.46231 3.00063 0.983499
Ar 0.907891 1.30268 1.22338
Ar -0.600492 1.99871 1.03153
Ar -1.11547 -0.100009 1.93095
Ar -0.290732 -1.61023 2.30145
Ar 0.129332 1.56883 1.06985
Ar 3.69293 2.68762 -0.776291
Ar 0.83407 1.29304 -1.2277
Ar -0.179599 -0.676436 1.4296
Ar 3.09005 -0.0101058 -0.323406
Ar 1.32112 0.525127 0.374898
15

Ar -1.70975 1.69565 0.289446
Ar -1.77906 -0.728037 0.604416
Ar -0.0430486 1.02382 -0.966424
Ar 0.183133 -0.434861 0.472746
Ar 1.46387 3.01423 0.99739
Ar 0.901918 1.29739 1.20592
Ar -0.598563 1.97325 1.03537
Ar -1.12598 -0.118374 1.92219
Ar -0.303215 -1.6249 2.29956
Ar 0.13333 1.57898 1.04758
Ar 3.69357 2.71117 -0.782165
Ar 0.831644 1.28595 -1.19902
Ar -0.190233 -0.677312 1.45487
Ar 3.0842 -0.012237 -0.325573
Ar 1.31996 0.541526 0.379238
15

Ar -1.69965 1.7025 0.268214
Ar -1.76813 -0.726076 0.606079
Ar -0.0489678 1.03664 -0.964853
Ar 0.209376 -0.446103 0.472083
Ar 1.46395 3.02729 1.01214
Ar 0.898388 1.29133 1.18917
Ar -0.599063 1.94897 1.0391
Ar -1.13676 -0.136529 1.91359
Ar -0.315738 -1.63995 2.29698
Ar 0.137259 1.58868 1.02477
Ar 3.69422 2.73502 -0.787113
Ar 0.830492 1.2792 -1.1706
Ar -0.200777 -0.678213 1.48045
Ar 3.07825 -0.0142837 -0.327798
Ar 1.31892 0.557779 0.383348
15

Ar -1.6896 1.70932 0.246868
Ar -1.75587 -0.723691 0.606992
Ar -0.0561235 1.04908 -0.962986
Ar 0.235786 -0.457251 0.471025
Ar 1.46268 3.03985 1.02769
Ar 0.897265 1.28447 1.17317
Ar -0.602256 1.9259 1.04282
Ar -1.14784 -0.154453 1.90515
Ar -0.328317 -1.65541 2.29381
Ar 0.141401 1.59799 1.00133
Ar 3.6949 2.75919 -0.791218
Ar 0.830681 1.27277 -1.14245
Ar -0.211172 -0.679123 1.50623
Ar 3.07221 -0.0162424 -0.330077
Ar 1.31802 0.573855 0.387198
15

Ar -1.67961 1.71612 0.225406
Ar -1.74242 -0.720953 0.607215
Ar -0.0645584 1.06115 -0.960853
Ar 0.262324 -0.468326 0.469641
Ar 1.4602 3.05199 1.04401
Ar 0.898454 1.27684 1.158
Ar -0.608311 1.90399 1.04662
Ar -1.15926 -0.172127 1.89688
Ar -0.340962 -1.67128 2.29013
Ar 0.145995 1.60698 0.97714
Ar 3.69563 2.78365 -0.794573
Ar 0.832251 1.26665 -1.11454
Ar -0.221357 -0.68003 1.53212
Ar 3.06609 -0.018108 -0.332404
Ar 1.3173 0.589715 0.390755
15

Ar -1.66967 1.7229 0.203824
Ar -1.72791 -0.717933 0.606812
Ar -0.0742799 1.07287 -0.95849
Ar 0.288933 -0.479345 0.467985
Ar 1.45667 3.06376 1.06102
Ar 0.901816 1.26846 1.1437
Ar -0.617271 1.88312 1.05062
Ar -1.17105 -0.189532 1.88881
Ar -0.353684 -1.68757 2.28604
Ar 0.151198 1.61579 0.952103
Ar 3.69642 2.80839 -0.797273
Ar 0.835202 1.26082 -1.08684
Ar -0.231272 -0.68093 1.55806
Ar 3.05989 -0.0198745 -0.334777
Ar 1.31679 0.605315 0.393974
15

Ar -1.6598 1.72967 0.182119
Ar -1.7125 -0.714697 0.605853
Ar -0.0852596 1.08428 -0.955938
Ar 0.315575 -0.490318 0.466099
Ar 1.45225 3.07522 1.07865
Ar 0.907171 1.25939 1.13033
Ar -0.629046 1.86313 1.05491
Ar -1.18325 -0.206648 1.88093
Ar -0.366487 -1.70424 2.28161
Ar 0.157064 1.62458 0.926129
Ar 3.69728 2.83338 -0.799412
Ar 0.8395 1.25524 -1.05932
Ar -0.240856 -0.681818 1.58398
Ar 3.05361 -0.0215347 -0.337192
Ar 1.31651 0.620602 0.396805
15

Ar -1.64998 1.73642 0.160289
Ar -1.69632 -0.711298 0.604404
Ar -0.0974368 1.09542 -0.953237
Ar 0.342218 -0.501253 0.464013
Ar 1.44707 3.08642 1.09686
Ar 0.914306 1.24973 1.11796
Ar -0.643422 1.84382 1.05955
Ar -1.19588 -0.22346 1.87325
Ar -0.379375 -1.72129 2.27695
Ar 0.163549 1.63351 0.899179
Ar 3.69822 2.8586 -0.801078
Ar 0.845078 1.24989 -1.03196
Ar -0.250051 -0.682696 1.60984
Ar 3.04727 -0.0230802 -0.339649
Ar 1.31653 0.635517 0.399182
15

Ar -1.64024 1.74318 0.13833
Ar -1.67951 -0.707785 0.602528
Ar -0.110725 1.1063 -0.950426
Ar 0.368834 -0.512155 0.46175
Ar 1.44128 3.09738 1.11557
Ar 0.922986 1.23959 1.10666
Ar -0.660107 1.82502 1.06459
Ar -1.20899 -0.239953 1.86578
Ar -0.392348 -1.73869 2.27211
Ar 0.17054 1.64273 0.871244
Ar 3.69925 2.88399 -0.802352
Ar 0.851848 1.24472 -1.00472
Ar -0.258802 -0.683563 1.6356
Ar 3.04085 -0.0245018 -0.342146
Ar 1.31689 0.649989 0.401026
15

Ar -1.63056 1.74993 0.116239
Ar -1.66219 -0.704199 0.600282
Ar -0.12502 1.11697 -0.947537
Ar 0.395391 -0.523025 0.459322
Ar 1.435 3.10815 1.13475
Ar 0.932961 1.2291 1.09651
Ar -0.678763 1.80654 1.07001
Ar -1.2226 -0.256116 1.85851
Ar -0.405404 -1.75641 2.26717
Ar 0.177893 1.65235 0.842349
Ar 3.70038 2.90953 -0.803305
Ar 0.859703 1.2397 -0.97758
Ar -0.26706 -0.68442 1.66126
Ar 3.03437 -0.025789 -0.344682
Ar 1.31766 0.663939 0.402243
15

Ar -1.62094 1.75668 0.0940117
Ar -1.64446 -0.700574 0.597717
Ar -0.140209 1.12745 -0.944598
Ar 0.421866 -0.533867 0.456738
Ar 1.42834 3.11874 1.15435
Ar 0.943974 1.21843 1.08761
Ar -0.699051 1.78825 1.07581
Ar -1.23674 -0.271938 1.85145
Ar -0.41854 -1.77443 2.26217
Ar 0.185457 1.66246 0.812551
Ar 3.70162 2.93518 -0.803999
Ar 0.868525 1.2348 -0.950521
Ar -0.274782 -0.685267 1.68678
Ar 3.02782 -0.0269303 -0.34725
Ar 1.31889 0.677278 0.402723
15

Ar -1.61139 1.76344 0.0716468
Ar -1.62641 -0.696941 0.594876
Ar -0.156174 1.13777 -0.941625
Ar 0.448235 -0.544679 0.453998
Ar 1.42139 3.12918 1.17434
Ar 0.955764 1.20772 1.08007
Ar -0.720656 1.77003 1.08192
Ar -1.25144 -0.287413 1.8446
Ar -0.431752 -1.79271 2.25716
Ar 0.193103 1.67308 0.781924
Ar 3.70297 2.96089 -0.804485
Ar 0.878195 1.22999 -0.923531
Ar -0.281933 -0.686102 1.71216
Ar 3.02121 -0.0279128 -0.349846
Ar 1.32066 0.68991 0.402337
15

Ar -1.6019 1.77021 0.0491424
Ar -1.60811 -0.693323 0.591796
Ar -0.172805 1.14793 -0.938632
Ar 0.474478 -0.555462 0.451098
Ar 1.41424 3.13948 1.1947
Ar 0.968082 1.19716 1.07401
Ar -0.743308 1.7518 1.08832
Ar -1.2667 -0.302544 1.83794
Ar -0.445035 -1.81122 2.25218
Ar 0.200729 1.68423 0.750556
Ar 3.70443 2.98664 -0.804809
Ar 0.8886 1.22525 -0.896618
Ar -0.288488 -0.686922 1.73739
Ar 3.01452 -0.0287226 -0.352472
Ar 1.32305 0.701734 0.400943
15

Ar -1.59249 1.77699 0.0264979
Ar -1.58964 -0.689744 0.58851
Ar -0.189995 1.15796 -0.935624
Ar 0.500575 -0.566214 0.448032
Ar 1.40694 3.14964 1.2154
Ar 0.980691 1.18692 1.06958
Ar -0.766782 1.73351 1.09494
Ar -1.28252 -0.317334 1.83148
Ar -0.458384 -1.82993 2.24725
Ar 0.208262 1.69589 0.718538
Ar 3.70603 3.01239 -0.805003
Ar 0.899631 1.22058 -0.869807
Ar -0.294432 -0.687721 1.76249
Ar 3.00775 -0.0293451 -0.355129
Ar 1.32613 0.712656 0.398392
15

Ar -1.58313 1.78378 0.00371427
Ar -1.57103 -0.686223 0.585045
Ar -0.207649 1.16786 -0.9326
Ar 0.526512 -0.576936 0.444788
Ar 1.39956 3.15969 1.23644
Ar 0.993379 1.17713 1.06691
Ar -0.790899 1.71512 1.10174
Ar -1.2989 -0.33179 1.8252
Ar -0.471792 -1.8488 2.24238
Ar 0.215656 1.70803 0.685959
Ar 3.70777 3.03811 -0.805092
Ar 0.911189 1.21595 -0.843107
Ar -0.29976 -0.688493 1.78746
Ar 3.0009 -0.0297647 -0.35782
Ar 1.32997 0.722586 0.394534
15

Ar -1.57384 1.7906 -0.0192062
Ar -1.55234 -0.682776 0.581425
Ar -0.225682 1.17763 -0.929564
Ar 0.552275 -0.587628 0.441354
Ar 1.39213 3.16962 1.2578
Ar 1.00596 1.16794 1.06613
Ar -0.815519 1.6966 1.10866
Ar -1.31583 -0.345924 1.81911
Ar -0.485253 -1.86781 2.23759
Ar 0.222886 1.7206 0.652902
Ar 3.70966 3.06378 -0.805099
Ar 0.923188 1.21136 -0.816537
Ar -0.304478 -0.689228 1.8123
Ar 2.99396 -0.0299653 -0.360549
Ar 1.33465 0.731459 0.389238
15

Ar -1.5646 1.79745 -0.0422596
Ar -1.5336 -0.67942 0.577672
Ar -0.24402 1.18726 -0.926511
Ar 0.577854 -0.598289 0.437715
Ar 1.3847 3.17943 1.27948
Ar 1.0183 1.15945 1.06733
Ar -0.840536 1.67793 1.11566
Ar -1.33327 -0.359751 1.81319
Ar -0.498761 -1.88692 2.23288
Ar 0.229939 1.73356 0.619445
Ar 3.71171 3.08935 -0.805037
Ar 0.935547 1.20682 -0.79012
Ar -0.308601 -0.689919 1.83702
Ar 2.98692 -0.0299301 -0.363319
Ar 1.3402 0.739233 0.382403
15

Ar -1.55543 1.80433 -0.0654405
Ar -1.51484 -0.676169 0.573804
Ar -0.262596 1.19675 -0.923431
Ar 0.603244 -0.608921 0.433858
Ar 1.37728 3.18911 1.30148
Ar 1.03027 1.15172 1.07055
Ar -0.865869 1.6591 1.1227
Ar -1.35119 -0.373287 1.80745
Ar -0.512309 -1.9061 2.22824
Ar 0.236816 1.74687 0.585658
Ar 3.71393 3.11482 -0.804918
Ar 0.9482 1.20232 -0.763885
Ar -0.312153 -0.690554 1.86163
Ar 2.97978 -0.0296425 -0.366136
Ar 1.34664 0.745902 0.373975
15

Ar -1.54631 1.81125 -0.0887417
Ar -1.49608 -0.673037 0.569838
Ar -0.281356 1.2061 -0.920312
Ar 0.628443 -0.619526 0.42977
Ar 1.36989 3.19866 1.32381
Ar 1.04183 1.14477 1.07579
Ar -0.891459 1.64012 1.12974
Ar -1.36957 -0.38655 1.80189
Ar -0.525891 -1.92532 2.22369
Ar 0.243522 1.76048 0.551606
Ar 3.71635 3.14017 -0.804744
Ar 0.961084 1.19786 -0.73787
Ar -0.315165 -0.691126 1.88612
Ar 2.97252 -0.0290852 -0.369003
Ar 1.35396 0.751492 0.363959
15

Ar -1.53725 1.81821 -0.112155
Ar -1.47733 -0.670036 0.565792
Ar -0.300249 1.2153 -0.917141
Ar 0.653449 -0.630107 0.425438
Ar 1.36253 3.2081 1.34645
Ar 1.05295 1.13856 1.083
Ar -0.917264 1.62096 1.13675
Ar -1.38834 -0.39956 1.79651
Ar -0.5395 -1.94454 2.2192
Ar 0.250066 1.77436 0.517345
Ar 3.71898 3.16536 -0.804516
Ar 0.974143 1.19346 -0.712118
Ar -0.317671 -0.691627 1.91048
Ar 2.96514 -0.0282418 -0.371926
Ar 1.36213 0.756057 0.352421
15

Ar -1.52824 1.82521 -0.135667
Ar -1.45861 -0.667178 0.561682
Ar -0.319233 1.22432 -0.913899
Ar 0.678263 -0.640666 0.420855
Ar 1.3552 3.21742 1.36941
Ar 1.06362 1.13305 1.09206
Ar -0.943252 1.60164 1.14371
Ar -1.40747 -0.412332 1.79132
Ar -0.55313 -1.96373 2.21478
Ar 0.256459 1.78848 0.482926
Ar 3.72183 3.19039 -0.804227
Ar 0.98732 1.18912 -0.686682
Ar -0.319709 -0.692051 1.93471
Ar 2.95761 -0.0270958 -0.374912
Ar 1.37111 0.759672 0.339489
15

Ar -1.51929 1.83227 -0.159267
Ar -1.43992 -0.664474 0.557525
Ar -0.33827 1.23317 -0.910568
Ar 0.702895 -0.651207 0.416013
Ar 1.3479 3.22663 1.39268
Ar 1.07387 1.12816 1.10282
Ar -0.969389 1.58215 1.15059
Ar -1.42689 -0.424885 1.78631
Ar -0.566773 -1.98287 2.21039
Ar 0.262711 1.8028 0.448396
Ar 3.72492 3.21524 -0.803866
Ar 1.00056 1.18488 -0.661625
Ar -0.321321 -0.692394 1.95877
Ar 2.94994 -0.0256323 -0.377967
Ar 1.38083 0.762419 0.32534
15

Ar -1.51039 1.83939 -0.182943
Ar -1.42126 -0.661935 0.55334
Ar -0.357328 1.24182 -0.907131
Ar 0.727357 -0.661734 0.410912
Ar 1.34059 3.23573 1.41626
Ar 1.08373 1.1238 1.11512
Ar -0.995651 1.56249 1.15736
Ar -1.44657 -0.437235 1.78151
Ar -0.580424 1.99807 2.20603
Ar 0.26883 1.8173 0.413796
Ar 3.72826 3.23989 -0.803419
Ar 1.01383 1.18075 -0.637023
Ar -0.322545 -0.692653 1.98266
Ar 2.9421 -0.0238369 -0.381097
Ar 1.39124 0.764378 0.310186
15

Ar -1.50156 1.84658 -0.206682
Ar -1.40265 -0.65957 0.549144
Ar -0.376377 1.25028 -0.903575
Ar 0.751664 -0.672251 0.405552
Ar 1.33327 3.24473 1.44012
Ar 1.09324 1.11991 1.12877
Ar -1.02203 1.54268 1.164
Ar -1.46645 -0.449405 1.7769
Ar -0.594075 1.97913 2.20168
Ar 0.274825 1.83196 0.379164
Ar 3.73189 3.26434 -0.802864
Ar 1.02705 1.17678 -0.612964
Ar -0.323423 -0.692831 2.00633
Ar 2.93409 -0.0216971 -0.38431
Ar 1.4023 0.765612 0.294269
15

Ar -1.4928 1.85384 -0.230469
Ar -1.38407 -0.657389 0.544957
Ar -0.395388 1.25855 -0.899884
Ar 0.77583 -0.68276 0.39994
Ar 1.3259 3.25364 1.46427
Ar 1.10245 1.1164 1.14361
Ar -1.04851 1.52271 1.1705
Ar -1.48647 -0.461418 1.77251
Ar -0.607718 1.96033 2.19732
Ar 0.2807 1.84677 0.344533
Ar 3.73581 3.28855 -0.802174
Ar 1.04018 1.17299 -0.589558
Ar -0.323993 -0.69293 2.02976
Ar 2.92587 -0.0192047 -0.387615
Ar 1.41397 0.766167 0.277845
15

Ar -1.48411 1.86118 -0.254287
Ar -1.36552 -0.6554 0.5408
Ar -0.414336 1.2666 -0.896043
Ar 0.799875 -0.693265 0.394085
Ar 1.31844 3.26245 1.48867
Ar 1.11141 1.11321 1.15947
Ar -1.0751 1.50261 1.17685
Ar -1.5066 -0.473286 1.76833
Ar -0.621346 1.9417 2.19292
Ar 0.28646 1.86171 0.309931
Ar 3.74004 3.31254 -0.801318
Ar 1.05315 1.16945 -0.56693
Ar -0.324292 -0.692956 2.0529
Ar 2.91745 -0.0163542 -0.391019
Ar 1.42625 0.766062 0.261181
15

Ar -1.47551 1.86861 -0.278117
Ar -1.34699 -0.653611 0.536692
Ar -0.433196 1.27443 -0.892039
Ar 0.823815 -0.703768 0.387999
Ar 1.31085 3.27117 1.51332
Ar 1.12014 1.11028 1.17621
Ar -1.10178 1.48236 1.18302
Ar -1.52676 -0.48502 1.76436
Ar -0.634951 1.92326 2.18847
Ar 0.292105 1.87678 0.275384
Ar 3.74461 3.3363 -0.800258
Ar 1.06588 1.16622 -0.545231
Ar -0.324356 -0.69292 2.07571
Ar 2.90879 -0.0131392 -0.394531
Ar 1.43914 0.765284 0.244554
15

Ar -1.46702 1.87614 -0.301942
Ar -1.32848 -0.652028 0.532655
Ar -0.451942 1.28203 -0.88786
Ar 0.847667 -0.71427 0.381698
Ar 1.3031 3.27981 1.5382
Ar 1.12869 1.10758 1.19368
Ar -1.12857 1.46197 1.189
Ar -1.54693 -0.49663 1.76061
Ar -0.648527 1.90502 2.18394
Ar 0.297636 1.89198 0.240913
Ar 3.74952 3.35985 -0.798953
Ar 1.07826 1.1634 -0.524629
Ar -0.324218 -0.692833 2.09814
Ar 2.89988 -0.00955573 -0.398158
Ar 1.4527 0.763791 0.228246
15

Ar -1.45866 1.88379 -0.325746
Ar -1.30997 -0.650657 0.528711
Ar -0.47055 1.28936 -0.883496
Ar 0.871449 -0.724771 0.375198
Ar 1.29514 3.28836 1.56327
Ar 1.13707 1.10505 1.2118
Ar -1.15545 1.44144 1.1948
Ar -1.56703 -0.508125 1.75707
Ar -0.662064 1.88701 2.1793
Ar 0.303053 1.9073 0.206535
Ar 3.75479 3.3832 -0.797353
Ar 1.09019 1.16108 -0.505314
Ar -0.323909 -0.69271 2.12014
Ar 2.89071 -0.00560268 -0.40191
Ar 1.46698 0.761511 0.212541
15

Ar -1.45044 1.89157 -0.349507
Ar -1.29146 -0.649504 0.524879
Ar -0.488991 1.29641 -0.878938
Ar 0.895172 -0.735267 0.368518
Ar 1.28693 3.29683 1.58853
Ar 1.1453 1.10269 1.23045
Ar -1.18242 1.42078 1.20039
Ar -1.58701 -0.519514 1.75375
Ar -0.675555 1.86924 2.17454
Ar 0.308353 1.92275 0.172261
Ar 3.76045 3.40637 -0.795407
Ar 1.10154 1.15941 -0.487484
Ar -0.323461 -0.69257 2.14164
Ar 2.88127 -0.001282 -0.405795
Ar 1.4821 0.758341 0.197722
15

Ar -1.44239 1.8995 -0.373206
Ar -1.27294 -0.648571 0.52118
Ar -0.507238 1.30317 -0.874182
Ar 0.918842 -0.745759 0.361675
Ar 1.27841 3.30521 1.61395
Ar 1.1534 1.10045 1.24956
Ar -1.20949 1.39999 1.20578
Ar -1.60683 -0.530805 1.75063
Ar -0.688992 1.85171 2.16962
Ar 0.313534 1.93832 0.13811
Ar 3.7665 3.42939 -0.79306
Ar 1.11215 1.15852 -0.471335
Ar -0.3229 -0.692435 2.16259
Ar 2.87155 0.00340145 -0.409818
Ar 1.49817 0.754159 0.184054
15

Ar -1.43455 1.90761 -0.39682
Ar -1.25439 -0.647861 0.51763
Ar -0.525252 1.30961 -0.869224
Ar 0.942469 -0.756246 0.35469
Ar 1.26955 3.31351 1.63951
Ar 1.16137 1.09833 1.26907
Ar -1.23664 1.37907 1.21096
Ar -1.62643 -0.542008 1.7477
Ar -0.702368 1.83443 2.16452
Ar 0.318596 1.95401 0.104097
Ar 3.77295 3.45228 -0.790256
Ar 1.12188 1.15856 -0.457037
Ar -0.322254 -0.692329 2.18293
Ar 2.86153 0.00843986 -0.413984
Ar 1.5153 0.748836 0.171769
15

Ar -1.42696 1.91592 -0.420325
Ar -1.2358 -0.647376 0.514246
Ar -0.542994 1.3157 -0.864068
Ar 0.966066 -0.766726 0.34758
Ar 1.26028 3.32173 1.66519
Ar 1.16923 1.09632 1.28892
Ar -1.26388 1.35802 1.21592
Ar -1.64575 -0.553131 1.74497
Ar -0.715673 1.81742 2.15921
Ar 0.323537 1.96984 0.0702225
Ar 3.77983 3.47508 -0.786939
Ar 1.13059 1.15965 -0.444716
Ar -0.32155 -0.692269 2.20259
Ar 2.85123 0.0138222 -0.418301
Ar 1.53362 0.742248 0.161046
15

Ar -1.41965 1.92446 -0.443696
Ar -1.21717 -0.64712 0.511042
Ar -0.560424 1.32141 -0.858717
Ar 0.989642 -0.777198 0.340363
Ar 1.25057 3.32988 1.69099
Ar 1.17697 1.0944 1.30906
Ar -1.29119 1.33686 1.22068
Ar -1.66474 -0.564183 1.7424
Ar -0.7289 1.80066 2.15368
Ar 0.328357 1.98579 0.0364872
Ar 3.78713 3.49782 -0.783054
Ar 1.13816 1.16191 -0.434427
Ar -0.320812 -0.69228 2.22153
Ar 2.84061 0.0195343 -0.422773
Ar 1.55321 0.734303 0.151987
15

Ar -1.41268 1.93328 -0.46691
Ar -1.19847 -0.647104 0.508029
Ar -0.5775 1.32671 -0.85318
Ar 1.01321 -0.787661 0.333057
Ar 1.24038 3.33796 1.7169
Ar 1.18459 1.09256 1.32946
Ar -1.31858 1.31561 1.22522
Ar -1.68335 -0.575177 1.73998
Ar -0.742041 1.78415 2.14791
Ar 0.333056 2.00188 0.00288707
Ar 3.79487 3.52054 -0.778555
Ar 1.14454 1.16539 -0.426147
Ar -0.320065 -0.692393 2.2397
Ar 2.82969 0.0255587 -0.427406
Ar 1.57412 0.724954 0.14461
15

Ar -1.4061 1.94241 -0.489941
Ar -1.17972 -0.647326 0.505214
Ar -0.594172 1.33157 -0.847468
Ar 1.03676 -0.798114 0.325677
Ar 1.22966 3.34596 1.74291
Ar 1.19209 1.0908 1.35008
Ar -1.34602 1.29426 1.22955
Ar -1.70153 -0.586122 1.73769
Ar -0.755086 1.7679 2.14188
Ar 0.337631 2.01809 -0.0305833
Ar 3.80306 3.54328 -0.773399
Ar 1.14971 1.17009 -0.41977
Ar -0.319333 -0.692641 2.25706
Ar 2.81846 0.031875 -0.432203
Ar 1.59636 0.714208 0.138845
15

Ar -1.39997 1.95192 -0.512767
Ar -1.16088 -0.647782 0.502603
Ar -0.610389 1.33594 -0.841595
Ar 1.06032 -0.808556 0.318237
Ar 1.21838 3.3539 1.76902
Ar 1.19946 1.08911 1.37091
Ar -1.37351 1.27284 1.23368
Ar -1.71924 -0.597032 1.73552
Ar -0.768028 1.75189 2.13558
Ar 0.342084 2.03445 -0.0639308
Ar 3.81169 3.56609 -0.767556
Ar 1.15372 1.17594 -0.415129
Ar -0.318636 -0.69306 2.27358
Ar 2.80693 0.0384596 -0.437167
Ar 1.61984 0.702132 0.134555
15

Ar -1.39436 1.96185 -0.535365
Ar -1.14196 -0.648465 0.500198
Ar -0.626094 1.33979 -0.835575
Ar 1.08388 -0.818987 0.310752
Ar 1.20652 3.36179 1.79523
Ar 1.20669 1.08749 1.39191
Ar -1.40104 1.25135 1.23762
Ar -1.73645 -0.60792 1.73343
Ar -0.780858 1.73611 2.12901
Ar 0.346413 2.05094 -0.0971635
Ar 3.82078 3.589 -0.761006
Ar 1.15668 1.18285 -0.412014
Ar -0.317995 -0.693679 2.28925
Ar 2.79511 0.0452871 -0.442302
Ar 1.64446 0.688837 0.13156
15

Ar -1.38933 1.97227 -0.557717
Ar -1.12295 -0.649369 0.498001
Ar -0.641229 1.34305 -0.829422
Ar 1.10746 -0.829396 0.303232
Ar 1.19405 3.36963 1.82156
Ar 1.21378 1.08594 1.41308
Ar -1.42859 1.22979 1.24136
Ar -1.75313 -0.618801 1.73141
Ar -0.793567 1.72056 2.12217
Ar 0.350619 2.06757 -0.130291
Ar 3.83031 3.61206 -0.753742
Ar 1.15869 1.19067 -0.410202
Ar -0.317427 -0.694523 2.30407
Ar 2.783 0.0523323 -0.447611
Ar 1.67008 0.674463 0.129659
15

Ar -1.38493 1.98325 -0.579809
Ar -1.10383 -0.650486 0.496009
Ar -0.655739 1.34569 -0.823148
Ar 1.13104 -0.839777 0.295693
Ar 1.18099 3.37744 1.848
Ar 1.22069 1.08444 1.43439
Ar -1.45613 1.20817 1.24492
Ar -1.76926 -0.629689 1.72942
Ar -0.806138 1.70522 2.11504
Ar 0.3547 2.08434 -0.163322
Ar 3.84028 3.63529 -0.745769
Ar 1.15992 1.19924 -0.409477
Ar -0.316949 -0.695613 2.31804
Ar 2.77062 0.0595639 -0.453098
Ar 1.69653 0.659165 0.12866
15

Ar -1.38124 1.99486 -0.601631
Ar -1.08462 -0.651807 0.494218
Ar -0.66957 1.34765 -0.816762
Ar 1.15463 -0.850129 0.288148
Ar 1.16731 3.38522 1.87455
Ar 1.2274 1.08301 1.45583
Ar -1.48364 1.1865 1.24831
Ar -1.78485 -0.640599 1.72746
Ar -0.81856 1.69008 2.10762
Ar 0.358657 2.10125 -0.196264
Ar 3.85069 3.65872 -0.737104
Ar 1.16048 1.20842 -0.409641
Ar -0.316573 -0.696967 2.33119
Ar 2.758 0.0669474 -0.458768
Ar 1.72365 0.643097 0.128391
15

Ar -1.3783 2.00716 -0.623181
Ar -1.06529 -0.653321 0.492624
Ar -0.682675 1.34888 -0.810266
Ar 1.17824 -0.860456 0.280604
Ar 1.15305 3.39299 1.90123
Ar 1.23389 1.08163 1.4774
Ar -1.5111 1.16477 1.25153
Ar -1.79988 -0.651545 1.72548
Ar -0.830827 1.67513 2.09993
Ar 0.362488 2.1183 -0.229127
Ar 3.86153 3.68238 -0.727774
Ar 1.16052 1.21807 -0.410525
Ar -0.316311 -0.698594 2.34355
Ar 2.74516 0.0744461 -0.46463
Ar 1.75129 0.626406 0.128705
15

Ar -1.37615 2.02022 -0.644468
Ar -1.04586 -0.655014 0.49122
Ar -0.695021 1.34932 -0.80366
Ar 1.20186 -0.87076 0.273069
Ar 1.13821 3.40075 1.92803
Ar 1.24013 1.08031 1.49908
Ar -1.53847 1.14301 1.2546
Ar -1.81438 -0.662539 1.72348
Ar -0.84293 1.66036 2.09196
Ar 0.366193 2.1355 -0.261921
Ar 3.87277 3.70628 -0.717814
Ar 1.16015 1.22807 -0.411987
Ar -0.316173 -0.700499 2.35516
Ar 2.73215 0.0820206 -0.470695
Ar 1.7793 0.609223 0.129488
15

Ar -1.37481 2.03408 -0.665506
Ar -1.02631 -0.656875 0.49
Ar -0.706587 1.34895 -0.796935
Ar 1.22548 -0.881045 0.26555
Ar 1.12284 3.40852 1.95497
Ar 1.2461 1.07905 1.52089
Ar -1.56572 1.1212 1.25751
Ar -1.82836 -0.67359 1.72144
Ar -0.854861 1.64575 2.08372
Ar 0.369772 2.15284 -0.294656
Ar 3.88441 3.73042 -0.707269
Ar 1.15947 1.23833 -0.41391
Ar -0.316164 -0.702682 2.36607
Ar 2.71899 0.0896287 -0.47698
Ar 1.80753 0.591667 0.130652
15

Ar -1.3743 2.04879 -0.68632
Ar -1.00665 -0.658896 0.488957
Ar -0.71737 1.34775 -0.790077
Ar 1.24912 -0.891315 0.258051
Ar 1.10697 3.4163 1.98203
Ar 1.25176 1.07785 1.54281
Ar -1.59281 1.09937 1.26029
Ar -1.84186 -0.684708 1.71935
Ar -0.866614 1.6313 2.07521
Ar 0.373225 2.17033 -0.327344
Ar 3.89643 3.75481 -0.696184
Ar 1.15855 1.24875 -0.416199
Ar -0.316292 -0.705134 2.37635
Ar 2.70574 0.0972257 -0.483506
Ar 1.83587 0.573839 0.132136
15

Ar -1.37459 2.06435 -0.706936
Ar -0.98688 -0.661067 0.488082
Ar -0.727381 1.34571 -0.783071
Ar 1.27276 -0.901578 0.250576
Ar 1.09064 3.4241 2.00922
Ar 1.25706 1.0767 1.56486
Ar -1.61969 1.07751 1.26292
Ar -1.85489 -0.695903 1.71718
Ar -0.878184 1.61698 2.06645
Ar 0.376552 2.18797 -0.359993
Ar 3.9088 3.77945 -0.684607
Ar 1.15747 1.25926 -0.41878
Ar -0.316559 -0.707847 2.38604
Ar 2.69246 0.104764 -0.490306
Ar 1.8642 0.555833 0.133907
15

Ar -1.37565 2.08076 -0.727386
Ar -0.966994 -0.66338 0.487368
Ar -0.736651 1.34287 -0.775898
Ar 1.29641 -0.91184 0.243129
Ar 1.07391 3.43193 2.03653
Ar 1.26197 1.07562 1.58705
Ar -1.64633 1.05564 1.26542
Ar -1.8675 -0.70718 1.71495
Ar -0.88957 1.6028 2.05743
Ar 0.379754 2.20576 -0.392615
Ar 3.9215 3.80434 -0.672589
Ar 1.15629 1.26982 -0.421588
Ar -0.316971 -0.710804 2.3952
Ar 2.67921 0.112193 -0.49742
Ar 1.8924 0.53773 0.135954
15

Ar -1.37745 2.09802 -0.747698
Ar -0.946997 -0.665828 0.486808
Ar -0.745217 1.33925 -0.768541
Ar 1.32005 -0.922106 0.235712
Ar 1.05681 3.43979 2.06396
Ar 1.26644 1.07461 1.60936
Ar -1.67266 1.03375 1.26779
Ar -1.87972 -0.718544 1.71264
Ar -0.900767 1.58873 2.04818
Ar 0.382832 2.22369 -0.425216
Ar 3.93452 3.82946 -0.660175
Ar 1.15503 1.28037 -0.424556
Ar -0.317529 -0.71399 2.40389
Ar 2.66606 0.119458 -0.504907
Ar 1.92037 0.519606 0.138289
15

Ar -1.37992 2.11607 -0.767893
Ar -0.926892 -0.668404 0.486396
Ar -0.753132 1.33491 -0.760985
Ar 1.34368 -0.932379 0.228327
Ar 1.03941 3.44767 2.0915
Ar 1.27041 1.07368 1.63182
Ar -1.69864 1.01185 1.27
Ar -1.8916 -0.729997 1.71026
Ar -0.911775 1.57476 2.0387
Ar 0.38579 2.24176 -0.457801
Ar 3.94782 3.8548 -0.647411
Ar 1.15375 1.29088 -0.427637
Ar -0.318238 -0.717384 2.41216
Ar 2.6531 0.126506 -0.512839
Ar 1.948 0.501529 0.140948
15

Ar -1.38301 2.13486 -0.787999
Ar -0.906685 -0.6711 0.486123
Ar -0.760452 1.32992 -0.75322
Ar 1.3673 -0.942659 0.220975
Ar 1.02176 3.45559 2.11913
Ar 1.27384 1.07283 1.65444
Ar -1.72422 0.989926 1.27206
Ar -1.90316 -0.741539 1.7078
Ar -0.922594 1.56089 2.02901
Ar 0.388632 2.25996 -0.490375
Ar 3.9614 3.88036 -0.634337
Ar 1.15246 1.30132 -0.430797
Ar -0.319101 -0.720964 2.42005
Ar 2.64041 0.133278 -0.521304
Ar 1.97519 0.483563 0.143991
15

Ar -1.38664 2.15433 -0.808036
Ar -0.886376 -0.673913 0.485985
Ar -0.76724 1.32435 -0.745241
Ar 1.3909 -0.952951 0.213656
Ar 1.00391 3.46355 2.14684
Ar 1.27668 1.07209 1.67726
Ar -1.74935 0.96798 1.27395
Ar -1.91445 -0.75317 1.70527
Ar -0.933221 1.54711 2.01911
Ar 0.391363 2.2783 -0.522943
Ar 3.97523 3.90611 -0.62099
Ar 1.15119 1.31167 -0.434011
Ar -0.320122 -0.724708 2.42761
Ar 2.62807 0.139735 -0.530412
Ar 2.00182 0.465769 0.1475
15

Ar -1.39076 2.1744 -0.828023
Ar -0.865968 -0.676845 0.485975
Ar -0.773555 1.3183 -0.737046
Ar 1.41447 -0.963262 0.206371
Ar 0.985912 3.47154 2.17462
Ar 1.27888 1.07145 1.7003
Ar -1.77399 0.946001 1.27566
Ar -1.9255 -0.764889 1.70267
Ar -0.943658 1.5334 2.00902
Ar 0.39399 2.29675 -0.55551
Ar 3.98931 3.93205 -0.607402
Ar 1.14995 1.32192 -0.437256
Ar -0.321308 -0.728597 2.43486
Ar 2.61618 0.145835 -0.540285
Ar 2.0278 0.448197 0.151579
15

Ar -1.39529 2.19499 -0.847974
Ar -0.845463 -0.679893 0.486088
Ar -0.779454 1.31184 -0.728639
Ar 1.43802 -0.973596 0.199118
Ar 0.96781 3.47957 2.20245
Ar 1.28041 1.07095 1.72359
Ar -1.7981 0.923976 1.27718
Ar -1.93634 -0.776694 1.70001
Ar -0.953904 1.51976 1.99876
Ar 0.396521 2.31531 -0.588075
Ar 0.00360644 3.95816 -0.5936
Ar 1.14875 1.33206 -0.440512
Ar -0.322667 -0.73261 2.44186
Ar 2.60481 0.151531 -0.551056
Ar 2.05306 0.430892 0.156346
15

Ar -1.40019 2.21606 -0.867897
Ar -0.824864 -0.683051 0.486318
Ar -0.784986 1.30506 -0.720028
Ar 1.46154 -0.98396 0.19191
Ar 0.949652 3.48763 2.23029
Ar 1.28122 1.07061 1.74718
Ar -1.82166 0.901894 1.27848
Ar -1.94699 -0.788583 1.6973
Ar -0.963961 1.50618 1.98833
Ar 0.398964 2.33396 -0.620638
Ar 0.0181059 3.98442 -0.579608
Ar 1.1476 1.34208 -0.443764
Ar -0.324208 -0.736727 2.44861
Ar 2.59401 0.156789 -0.562863
Ar 2.07754 0.413883 0.161922
15

Ar -1.40539 2.23752 -0.887798
Ar -0.804172 -0.686317 0.486661
Ar -0.790197 1.29804 -0.71123
Ar 1.48501 -0.994357 0.184754
Ar 0.931482 3.49574 2.25813
Ar 1.28131 1.07044 1.7711
Ar -1.84466 0.879739 1.27957
Ar -1.95749 -0.800553 1.69453
Ar -0.973829 1.49266 1.97774
Ar 0.40133 2.35269 -0.653195
Ar 0.0327924 0.010823 -0.565445
Ar 1.14651 1.35198 -0.446997
Ar -0.325942 -0.740928 2.45514
Ar 2.58382 0.161586 -0.575833
Ar 2.1012 0.397186 0.168419
15

Ar -1.41087 2.25932 -0.907682
Ar -0.783389 -0.689688 0.487113
Ar -0.795126 1.29084 -0.702261
Ar 1.50844 -1.00479 0.177647
Ar 0.913343 3.50389 2.28595
Ar 1.28066 1.07046 1.79536
Ar -1.86709 0.857498 1.28043
Ar -1.96786 -0.8126 1.69172
Ar -0.98351 1.4792 1.96702
Ar 0.403628 2.37148 -0.68574
Ar 0.0476507 0.0373485 -0.551127
Ar 1.14547 1.36176 -0.450201
Ar -0.327883 -0.745195 2.46147
Ar 2.57425 0.165917 -0.590072
Ar 2.12405 0.380799 0.175927
15

Ar -1.41657 2.28142 -0.92755
Ar -0.762516 -0.693163 0.487669
Ar -0.799805 1.28353 -0.693133
Ar 1.53182 -1.01527 0.170589
Ar 0.895274 3.51209 2.31373
Ar 1.27929 1.07071 1.81999
Ar -1.88896 0.835158 1.28105
Ar -1.97812 -0.824722 1.68886
Ar -0.993007 1.46579 1.95616
Ar 0.405872 2.39031 -0.718263
Ar 0.062665 0.0639859 -0.536664
Ar 1.14449 1.37143 -0.453366
Ar -0.330045 -0.749509 2.46761
Ar 2.56526 0.169794 -0.605648
Ar 2.14612 0.364703 0.184503
15

Ar -1.42247 2.30375 -0.947403
Ar -0.741554 -0.696741 0.488326
Ar -0.804261 1.27617 -0.683859
Ar 1.55514 -1.0258 0.163579
Ar 0.877316 3.52035 2.34146
Ar 1.2772 1.07118 1.84501
Ar -1.91031 0.81271 1.28143
Ar -1.98828 -0.836915 1.68597
Ar -1.00232 1.45243 1.94519
Ar 0.408074 2.40914 -0.750751
Ar 0.0778225 0.0907229 -0.522066
Ar 1.14357 1.38099 -0.456482
Ar -0.332448 -0.753852 2.47356
Ar 2.55681 0.173241 -0.622589
Ar 2.16748 0.348867 0.194158
15

Ar -1.42853 2.32628 -0.96724
Ar -0.720503 -0.700419 0.489078
Ar -0.808518 1.26882 -0.674449
Ar 1.57841 -1.03638 0.156614
Ar 0.859506 3.52867 2.36912
Ar 1.27444 1.0719 1.87042
Ar -1.93118 0.790148 1.2816
Ar -1.99837 -0.849176 1.68305
Ar -1.01145 1.43912 1.93411
Ar 0.41025 2.42795 -0.783189
Ar 0.0931111 0.117548 -0.507339
Ar 1.14272 1.39045 -0.459542
Ar -0.33511 -0.758206 2.47933
Ar 2.54881 0.176296 -0.640872
Ar 2.1882 0.333248 0.204859
15

Ar -1.43474 2.34896 -0.987059
Ar -0.699365 -0.704198 0.489923
Ar -0.812596 1.26151 -0.664916
Ar 1.60161 -1.04701 0.149695
Ar 0.841882 3.53708 2.39669
Ar 1.27103 1.07287 1.89621
Ar -1.95161 0.767471 1.28155
Ar 1.99161 -0.861502 1.6801
Ar -1.0204 1.42585 1.92292
Ar 0.412415 2.4467 -0.815556
Ar 0.108518 0.144449 -0.492485
Ar 1.14192 1.39982 -0.462539
Ar -0.338056 -0.762553 2.48492
Ar 2.54117 0.178997 -0.660437
Ar 2.20839 0.317798 0.21653
15

Ar -1.44108 2.37176 -1.00686
Ar -0.678141 -0.708076 0.490856
Ar -0.816509 1.25431 -0.65527
Ar 1.62474 -1.05771 0.142822
Ar 0.824478 3.54558 2.42415
Ar 1.26704 1.07409 1.92238
Ar -1.97165 0.744683 1.28132
Ar 1.98163 -0.87389 1.67712
Ar -1.02918 1.41263 1.91165
Ar 0.414587 2.46536 -0.847833
Ar 0.124032 0.171418 -0.477506
Ar 1.14118 1.40909 -0.465467
Ar -0.34131 -0.766872 2.49032
Ar 2.53381 0.181387 -0.681188
Ar 2.22815 0.302477 0.229061
15

Ar -1.44752 2.39462 -1.02664
Ar -0.65683 -0.712053 0.491883
Ar -0.820273 1.24723 -0.645519
Ar 1.64781 -1.06846 0.135992
Ar 0.80733 3.55421 2.45149
Ar 1.2625 1.07557 1.9489
Ar -1.99139 0.721792 1.28093
Ar 1.97168 -0.886337 1.67411
Ar -1.03779 1.39945 1.90029
Ar 0.416786 2.48387 -0.879993
Ar 0.139646 0.198443 -0.462402
Ar 1.1405 1.41829 -0.46832
Ar -0.344899 -0.771146 2.49551
Ar 2.52663 0.183504 -0.703008
Ar 2.24759 0.287238 0.242324
15

Ar -1.45406 2.41754 -1.04641
Ar -0.635431 -0.716128 0.493017
Ar -0.8239 1.24032 -0.63567
Ar 1.6708 -1.07927 0.129208
Ar 0.790471 3.563 2.4787
Ar 1.25748 1.07729 1.97574
Ar 1.98913 0.698811 1.28043
Ar 1.96176 -0.898841 1.67108
Ar -1.04622 1.38632 1.88885
Ar 0.419034 2.50219 -0.912011
Ar 0.155348 0.225518 -0.447171
Ar 1.13987 1.42743 -0.471092
Ar -0.348854 -0.775352 2.50047
Ar 2.51955 0.185381 -0.725772
Ar 2.26679 0.272044 0.256179
15

Ar -1.46069 2.44048 -1.06615
Ar -0.613943 -0.720301 0.494255
Ar -0.827401 1.23359 -0.62573
Ar 1.69372 -1.09015 0.122469
Ar 0.773933 3.57197 2.50574
Ar 1.25203 1.07925 2.00287
Ar 1.96983 0.675753 1.27984
Ar 1.95185 -0.911399 1.66802
Ar -1.05449 1.37323 1.87735
Ar 0.421353 2.52025 -0.943858
Ar 0.171132 0.252632 -0.431809
Ar 1.1393 1.4365 -0.473778
Ar -0.353202 -0.779468 2.50518
Ar 2.51252 0.187045 -0.749341
Ar 2.28583 0.256863 0.27049
15

Ar -1.4674 2.46341 -1.08586
Ar -0.592366 -0.724573 0.495599
Ar -0.830787 1.22708 -0.615703
Ar 1.71655 -1.10109 0.115775
Ar 0.757746 3.58117 2.5326
Ar 1.24619 1.08143 2.03027
Ar 1.95065 0.652638 1.2792
Ar 1.94193 -0.924008 1.66492
Ar -1.06259 1.36018 1.86577
Ar 0.423771 2.53798 -0.975503
Ar 0.186989 0.27978 -0.416313
Ar 1.13879 1.44554 -0.476373
Ar -0.357978 -0.783472 2.50962
Ar 2.50547 0.18852 -0.773593
Ar 2.3048 0.24167 0.28513
15

Ar -1.47418 2.48632 -1.10555
Ar -0.570697 -0.728942 0.497047
Ar -0.834067 1.22079 -0.605594
Ar 1.7393 -1.1121 0.10913
Ar 0.741939 3.59064 2.55928
Ar 1.24002 1.08381 2.05788
Ar 1.93152 0.629483 1.27854
Ar 1.93201 -0.936654 1.6618
Ar -1.07053 1.34718 1.85414
Ar 0.426315 2.5553 -1.00692
Ar 0.202912 0.306953 -0.400678
Ar 1.13833 1.45454 -0.478871
Ar -0.363218 -0.787339 2.51378
Ar 2.49837 0.189823 -0.798422
Ar 2.32373 0.22645 0.299985
15

Ar -1.48103 2.50918 -1.12521
Ar -0.548937 -0.733409 0.498595
Ar -0.837253 1.21473 -0.595405
Ar 1.76198 -1.12318 0.102532
Ar 0.726536 3.60046 2.58574
Ar 1.23356 1.08637 2.08568
Ar 1.91239 0.606306 1.2779
Ar 1.92207 -0.94933 1.65864
Ar -1.07832 1.33422 1.84245
Ar 0.429017 2.57212 -1.03808
Ar 0.218892 0.334146 -0.384898
Ar 1.13794 1.46352 -0.481266
Ar -0.368957 -0.791045 2.51765
Ar 2.49119 0.190969 -0.823735
Ar 2.34269 0.211191 0.314958
15

Ar -1.48796 2.53197 -1.14483
Ar -0.527083 -0.737973 0.500241
Ar -0.840353 1.20891 -0.585139
Ar 1.78456 -1.13432 0.0959855
Ar 0.711561 3.61068 2.612
Ar 1.22684 1.08908 2.11361
Ar 1.89321 0.583124 1.27731
Ar 1.9121 -0.962037 1.65543
Ar -1.08595 1.3213 1.83071
Ar 0.431908 2.58836 -1.06897
Ar 0.234923 0.361351 -0.368966
Ar 1.1376 1.4725 -0.48355
Ar -0.375231 -0.794564 2.5212
Ar 2.48392 0.191973 -0.849451
Ar 2.36171 0.195886 0.32997
15

Ar -1.49495 2.55468 -1.16442
Ar -0.505134 -0.742635 0.501981
Ar -0.843379 1.20335 -0.574799
Ar 1.80707 -1.14553 0.0894934
Ar 0.697029 3.62138 2.63805
Ar 1.21991 1.09194 2.14165
Ar 1.87392 0.559954 1.2768
Ar 1.9021 -0.974773 1.65217
Ar -1.09343 1.30844 1.81891
Ar 0.435024 2.6039 -1.09957
Ar 0.250996 0.388562 -0.352877
Ar 1.13733 1.48148 -0.485718
Ar -0.382073 -0.797872 2.52443
Ar 2.47653 0.192847 -0.875503
Ar 2.38083 0.180534 0.344957
15

Ar -1.50202 2.57728 -1.18397
Ar -0.483088 -0.747393 0.503813
Ar -0.846339 1.19803 -0.564387
Ar 1.8295 -1.15681 0.0830581
Ar 0.682953 3.63261 2.66389
Ar 1.21278 1.09493 2.16976
Ar 1.8545 0.536812 1.27638
Ar 1.89205 -0.987538 1.64884
Ar -1.10077 1.29561 1.80707
Ar 0.4384 2.61865 -1.12989
Ar 0.267104 0.415774 -0.336623
Ar 1.13712 1.4905 -0.487759
Ar -0.389511 -0.800949 2.52732
Ar 2.46903 0.193603 -0.901833
Ar 2.40005 0.165135 0.359871
15

Ar -1.50917 2.59976 -1.20346
Ar -0.460943 -0.752249 0.505734
Ar -0.849246 1.19297 -0.553905
Ar 1.85185 -1.16815 0.0766814
Ar 0.669337 3.64446 2.68955
Ar 1.2055 1.09803 2.19788
Ar 1.8349 0.513712 1.27607
Ar 1.88194 -1.00033 1.64545
Ar -1.10796 1.28284 1.79518
Ar 0.442073 2.63252 -1.15994
Ar 0.283237 0.442978 -0.3202
Ar 1.13699 1.49955 -0.489667
Ar -0.397569 -0.803783 2.52988
Ar 2.46142 0.194252 -0.928393
Ar 2.41942 0.149695 0.374679
15

Ar -1.51639 2.6221 -1.2229
Ar -0.438697 -0.757201 0.507741
Ar -0.852109 1.18815 -0.543356
Ar 1.87412 -1.17957 0.0703648
Ar 0.656176 3.65697 2.71505
Ar 1.19807 1.10122 2.226
Ar 1.8151 0.490664 1.27587
Ar 1.87177 -1.01316 1.64198
Ar -1.11502 1.27012 1.78325
Ar 0.446078 2.64544 -1.18975
Ar 0.299388 0.470169 -0.3036
Ar 1.13693 1.50866 -0.49143
Ar -0.406259 -0.806363 2.53211
Ar 2.45368 0.194808 -0.955142
Ar 2.43893 0.134218 0.389359
15

Ar -1.5237 2.64429 -1.24227
Ar -0.41635 -0.76225 0.509832
Ar -0.854937 1.18359 -0.532742
Ar 1.89633 -1.19105 0.0641097
Ar 0.643456 3.67019 2.74042
Ar 1.19052 1.1045 2.25407
Ar 1.79507 0.467674 1.27578
Ar 1.86153 -1.02601 1.63841
Ar -1.12194 1.25745 1.77128
Ar 0.450449 2.65734 -1.21935
Ar 0.315545 0.497338 -0.286814
Ar 1.13695 1.51786 -0.493036
Ar -0.415583 -0.808675 2.53401
Ar 2.44584 0.195282 -0.982046
Ar 2.4586 0.118714 0.403898
15

Ar -1.53111 2.66632 -1.26157
Ar -0.393897 -0.767395 0.512003
Ar -0.85774 1.17925 -0.522068
Ar 1.91846 -1.20259 0.0579174
Ar 0.631157 3.68415 2.76571
Ar 1.18287 1.10784 2.28205
Ar 1.77482 0.444749 1.2758
Ar 1.8512 -1.0389 1.63474
Ar -1.12873 1.24483 1.75926
Ar 0.455213 2.6682 -1.2488
Ar 0.331697 0.524479 -0.269833
Ar 1.13706 1.52715 -0.494474
Ar -0.425533 -0.810713 2.53559
Ar 2.43789 0.195689 -1.00907
Ar 2.47843 0.103189 0.418294
15

Ar -1.53861 2.68817 -1.28078
Ar -0.371339 -0.772637 0.514253
Ar -0.860528 1.17514 -0.511336
Ar 1.94053 -1.21421 0.0517885
Ar 0.619248 3.69882 2.79095
Ar 1.17512 1.11123 2.3099
Ar 1.75431 0.421893 1.27593
Ar 1.84077 -1.05182 1.63093
Ar -1.1354 1.23226 1.74721
Ar 0.460394 2.67801 -1.27815
Ar 0.347834 0.551581 -0.25265
Ar 1.13727 1.53658 -0.495729
Ar -0.436085 -0.812476 2.53688
Ar 2.42985 0.196043 -1.0362
Ar 2.49841 0.0876544 0.432548
15

Ar -1.54621 2.70983 -1.29989
Ar -0.348672 -0.777975 0.51658
Ar -0.863308 1.17125 -0.50055
Ar 1.96253 -1.22589 0.0457237
Ar 0.607694 3.7142 2.81618
Ar 1.16729 1.11465 2.33759
Ar 1.73356 0.399107 1.27614
Ar 1.83024 -1.06478 1.62699
Ar -1.14194 1.21976 1.73511
Ar 0.465997 2.6868 -1.30747
Ar 0.363942 0.578636 -0.235255
Ar 1.13758 1.54615 -0.496784
Ar -0.447202 -0.813968 2.5379
Ar 2.42173 0.196356 -1.0634
Ar 2.51854 0.0721187 0.446668
15

Ar -1.55391 2.73128 -1.31888
Ar -0.325895 -0.783413 0.51898
Ar -0.86607 1.16755 -0.489715
Ar 1.98449 -1.23763 0.0397227
Ar 0.596455 3.73022 2.84145
Ar 1.1594 1.11809 2.36508
Ar 1.71256 0.376395 1.27643
Ar 1.8196 -1.07778 1.62289
Ar -1.14837 1.20731 1.72298
Ar 0.472016 2.69464 -1.33681
Ar 0.380007 0.605633 -0.217641
Ar 1.13799 1.55591 -0.497623
Ar -0.458834 -0.815195 2.53867
Ar 2.41353 0.196645 -1.09065
Ar 2.53881 0.0565911 0.460666
15

Ar -1.56171 2.75253 -1.33775
Ar -0.303006 -0.788953 0.521452
Ar -0.868813 1.16404 -0.478833
Ar 2.00639 -1.24944 0.0337854
Ar 0.585492 3.74682 2.86677
Ar 1.15144 1.12153 2.39233
Ar 1.69131 0.353757 1.27678
Ar 1.80882 -1.09084 1.61861
Ar -1.15468 1.19494 1.71082
Ar 0.478448 2.70158 -1.3662
Ar 0.396014 0.632561 -0.199796
Ar 1.1385 1.56588 -0.498226
Ar -0.470919 -0.81617 2.53921
Ar 2.40525 0.196922 -1.11794
Ar 2.55922 0.04108 0.474553
15

Ar -1.56963 2.77356 -1.35648
Ar -0.280009 -0.794596 0.523994
Ar -0.871545 1.16071 -0.46791
Ar 2.02824 -1.26131 0.0279107
Ar 0.574765 3.76392 2.89216
Ar 1.14343 1.12495 2.41928
Ar 1.66983 0.331195 1.27718
Ar 1.79791 -1.10395 1.61412
Ar -1.16088 1.18263 1.69862
Ar 0.485285 2.70773 -1.3957
Ar 0.411947 0.659408 -0.181707
Ar 1.13913 1.5761 -0.498573
Ar -0.483388 -0.816903 2.53956
Ar 2.39692 0.197204 -1.14525
Ar 2.57975 0.0255931 0.488343
15

Ar -1.57767 2.79436 -1.37506
Ar -0.256904 -0.800341 0.526604
Ar -0.874272 1.15754 -0.45695
Ar 2.05006 -1.27324 0.0220977
Ar 0.564238 3.78144 2.91763
Ar 1.13537 1.12833 2.4459
Ar 1.64813 0.308711 1.27761
Ar 1.78686 -1.11712 1.60943
Ar -1.16697 1.17041 1.68639
Ar 0.492507 2.71318 -1.42532
Ar 0.427779 0.686161 -0.163359
Ar 1.13988 1.5866 -0.49864
Ar -0.496162 -0.817418 2.53973
Ar 2.38855 0.197506 -1.17257
Ar 2.60038 0.010137 0.502051
15

Ar -1.58587 2.81492 -1.39347
Ar -0.23369 -0.806188 0.52928
Ar -0.876997 1.15452 -0.445957
Ar 2.07184 -1.28522 0.0163445
Ar 0.55388 3.79928 2.94319
Ar 1.12727 1.13164 2.47215
Ar 1.62622 0.286307 1.27806
Ar 1.77564 -1.13036 1.60449
Ar -1.17296 1.15828 1.67412
Ar 0.500089 2.71801 -1.45508
Ar 0.443492 0.712807 -0.144737
Ar 1.14078 1.59743 -0.498404
Ar -0.509159 -0.817734 2.53975
Ar 2.38014 0.197842 -1.19987
Ar 2.6211 -0.00528281 0.51569
15

Ar -1.59423 2.83524 -1.4117
Ar -0.21037 -0.812138 0.532017
Ar -0.879725 1.15164 -0.434935
Ar 2.0936 -1.29727 0.0106494
Ar 0.543661 3.81738 2.96881
Ar 1.11912 1.13486 2.49796
Ar 1.6041 0.263983 1.27851
Ar 1.76427 -1.14369 1.59929
Ar -1.17885 1.14624 1.66182
Ar 0.507999 2.72233 -1.48499
Ar 0.45907 0.739327 -0.125824
Ar 1.14183 1.60863 -0.49784
Ar -0.522296 -0.817866 2.53965
Ar 2.37171 0.198229 -1.22714
Ar 2.64188 -0.020662 0.529273
15

Ar -1.60276 2.85532 -1.42975
Ar -0.18695 -0.818191 0.534801
Ar -0.882468 1.14889 -0.423888
Ar 2.11532 -1.30936 0.00501022
Ar 0.533552 3.83566 2.9945
Ar 1.11095 1.13798 2.52329
Ar 1.5818 0.241744 1.27896
Ar 1.75274 -1.15712 1.59383
Ar -1.18464 1.1343 1.64948
Ar 0.5162 2.72622 -1.51503
Ar 0.474496 0.7657 -0.106603
Ar 1.14306 1.62025 -0.496922
Ar -0.535487 -0.81783 2.53944
Ar 2.36324 0.198684 -1.25438
Ar 2.66273 -0.0359974 0.542809
15

Ar -1.6115 2.87514 -1.44759
Ar -0.163432 -0.824348 0.537629
Ar -0.885232 1.14626 -0.41282
Ar 2.13704 -1.32149 -0.000575321
Ar 0.523532 3.85405 3.02023
Ar 1.10274 1.14094 2.5481
Ar 1.55931 0.219591 1.27939
Ar 1.74104 -1.17066 1.58806
Ar -1.19034 1.12246 1.6371
Ar 0.524655 2.72976 -1.54519
Ar 0.489753 0.791911 -0.0870533
Ar 1.14449 1.63233 -0.495626
Ar -0.548649 -0.817641 2.53916
Ar 2.35475 0.199222 -1.28158
Ar 2.68362 -0.0512868 0.556303
15

Ar -1.62045 2.8947 -1.46522
Ar -0.139815 -0.830607 0.540494
Ar -0.88802 1.14374 -0.401734
Ar 2.15874 -1.33367 -0.00610968
Ar 0.51358 3.8725 3.046
Ar 1.09451 1.14374 2.57232
Ar 1.53666 0.197528 1.2798
Ar 1.72918 -1.18432 1.58199
Ar -1.19595 1.11073 1.62468
Ar 0.533322 2.733 -1.57546
Ar 0.504827 0.817947 -0.0671569
Ar 1.14612 1.64494 -0.493927
Ar -0.561703 -0.817312 2.53882
Ar 2.34625 0.199862 -1.30871
Ar 2.70454 -0.0665291 0.569751
15

Ar -1.62964 2.91401 -1.48263
Ar -0.116101 -0.83697 0.543371
Ar -0.890833 1.14132 -0.390635
Ar 2.18043 -1.34589 -0.0115954
Ar 0.503679 3.89097 3.0718
Ar 1.08624 1.14633 2.59592
Ar 1.51385 0.175558 1.28016
Ar 1.71716 -1.19812 1.5756
Ar -1.20146 1.09911 1.61222
Ar 0.542162 2.73601 -1.60583
Ar 0.519702 0.843795 -0.0468937
Ar 1.14798 1.65811 -0.491802
Ar -0.574574 -0.816857 2.53847
Ar 2.33772 0.200621 -1.33577
Ar 2.72547 -0.0817235 0.583159
15

Ar -1.63908 2.93304 -1.49981
Ar -0.0922907 -0.843437 0.546253
Ar -0.893672 1.13898 -0.379536
Ar 2.20212 -1.35814 -0.0170349
Ar 0.493813 3.9094 3.0976
Ar 1.07793 1.14868 2.61883
Ar 1.49088 0.153685 1.28049
Ar 1.70498 -1.21208 1.56887
Ar -1.20689 1.08761 1.59973
Ar 0.551133 2.73881 -1.63627
Ar 0.534366 0.86944 -0.0262441
Ar 1.15009 1.6719 -0.489234
Ar -0.587192 -0.81629 2.53813
Ar 2.32918 0.20152 -1.36276
Ar 2.74641 -0.0968704 0.596533
15

Ar -1.6488 2.95181 -1.51676
Ar -0.0683857 -0.850009 0.549138
Ar -0.896539 1.13673 -0.368455
Ar 2.22381 -1.37042 -0.0224307
Ar 0.483969 3.92777 3.12341
Ar 1.06958 1.15075 2.64104
Ar 1.46778 0.131914 1.28075
Ar 1.69265 -1.2262 1.56179
Ar -1.21224 1.07624 1.58721
Ar 0.560195 2.74146 -1.66678
Ar 0.548806 0.894874 -0.00518901
Ar 1.15246 1.68636 -0.486208
Ar -0.599494 -0.815624 2.5378
Ar 2.32063 0.202578 -1.38965
Ar 2.76734 -0.111971 0.609878
15

Ar -1.6588 2.97031 -1.53349
Ar -0.0443883 -0.856684 0.552024
Ar -0.899432 1.13455 -0.357396
Ar 2.24552 -1.38273 -0.0277852
Ar 0.474137 3.94604 3.1492
Ar 1.06119 1.15253 2.66249
Ar 1.44455 0.110248 1.28096
Ar 1.68019 -1.24052 1.55436
Ar -1.2175 1.065 1.57468
Ar 0.569307 2.74397 -1.69732
Ar 0.563015 0.920086 0.0162896
Ar 1.15511 1.70153 -0.482716
Ar -0.611423 -0.814872 2.5375
Ar 2.31205 0.203817 -1.41643
Ar 2.78826 -0.127026 0.623186
15

Ar -1.66911 2.98852 -1.55
Ar -0.0203012 -0.863462 0.554906
Ar -0.902352 1.13243 -0.34636
Ar 2.26723 -1.39506 -0.0331006
Ar 0.464305 3.9642 3.17498
Ar 1.05274 1.15397 2.68316
Ar 1.42119 0.0886936 1.2811
Ar 1.6676 -1.25503 1.54656
Ar -1.22267 1.0539 1.56211
Ar 0.578427 2.74637 -1.72789
Ar 0.576986 0.945071 0.0382084
Ar 1.15805 1.71746 -0.478756
Ar -0.622932 -0.814046 2.53726
Ar 2.30346 0.205259 -1.44308
Ar 2.80915 -0.14204 0.636449
15

Ar -1.67974 3.00645 -1.56631
Ar 0.00387194 -0.870345 0.557782
Ar -0.905298 1.13038 -0.33535
Ar 2.28896 -1.40741 -0.0383791
Ar 0.454465 3.98223 3.20073
Ar 1.04422 1.15506 2.70305
Ar 1.39771 0.0672561 1.28118
Ar 1.65493 -1.26977 1.53838
Ar -1.22777 1.04294 1.54952
Ar 0.587514 2.74869 -1.75844
Ar 0.590714 0.969824 0.0605817
Ar 1.16129 1.73418 -0.474337
Ar -0.633978 -0.81316 2.53708
Ar 2.29486 0.206927 -1.4696
Ar 2.83002 -0.157015 0.649669
15

Ar -1.69069 3.02409 -1.58243
Ar 0.0281271 -0.877327 0.560644
Ar -0.90827 1.12837 -0.324367
Ar 2.31072 -1.41976 -0.0436226
Ar 0.44461 0.000115641 3.22645
Ar 1.03564 1.15577 2.72213
Ar 1.37411 0.045942 1.28117
Ar 1.64219 -1.28474 1.52982
Ar -1.23278 1.03215 1.5369
Ar 0.596525 2.75092 -1.78895
Ar 0.604198 0.994344 0.0834216
Ar 1.16485 1.75171 -0.469472
Ar -0.64453 -0.812226 2.53697
Ar 2.28623 0.208846 -1.49596
Ar 2.85085 -0.171955 0.662847
15

Ar -1.70197 3.04142 -1.59836
Ar 0.0524593 -0.884406 0.563489
Ar -0.911267 1.12639 -0.313415
Ar 2.33249 -1.43212 -0.048833
Ar 0.43473 0.0178378 3.25213
Ar 1.02697 1.15609 2.74043
Ar 1.35041 0.0247586 1.28109
Ar 1.62943 -1.29996 1.52087
Ar -1.23772 1.02151 1.52423
Ar 0.605414 2.7531 -1.81941
Ar 0.617441 1.01863 0.106737
Ar 1.16873 1.77006 -0.464192
Ar -0.654562 -0.811257 2.53694
Ar 2.27757 0.211043 -1.52216
Ar 2.87164 -0.186864 0.675984
15

Ar -1.71359 3.05843 -1.61412
Ar 0.0768625 -0.891584 0.56631
Ar -0.914288 1.12444 -0.302493
Ar 2.3543 -1.44447 -0.0540117
Ar 0.424822 0.0353906 3.27779
Ar 1.01823 1.15602 2.75795
Ar 1.32661 0.00371412 1.28092
Ar 1.61668 -1.31545 1.51154
Ar -1.24257 1.01107 1.51153
Ar 0.614133 2.75521 -1.84976
Ar 0.630448 1.04269 0.130533
Ar 1.17293 1.78925 -0.458538
Ar -0.664059 -0.810267 2.53702
Ar 2.26889 0.213542 -1.5482
Ar 2.89238 -0.201746 0.689081
15

Ar -1.72554 3.07509 -1.62971
Ar 0.10133 -0.898862 0.5691
Ar -0.917333 1.12252 -0.291605
Ar 2.37614 -1.45682 -0.0591603
Ar 0.414877 0.0527664 3.3034
Ar 1.00941 1.15556 2.77471
Ar 1.30271 -0.017182 1.28067
Ar 1.60399 -1.33122 1.50181
Ar -1.24734 1.00081 1.49878
Ar 0.622632 2.75729 -1.87999
Ar 0.643224 1.06653 0.154812
Ar 1.17744 1.80927 -0.452548
Ar -0.673017 -0.809265 2.5372
Ar 2.26017 0.21637 -1.57406
Ar 2.91308 -0.216605 0.702137
15

Ar -1.73783 3.0914 -1.64516
Ar 0.125853 -0.906242 0.571852
Ar -0.920399 1.12061 -0.280753
Ar 2.39801 -1.46916 -0.0642802
Ar 0.404892 0.0699593 3.32896
Ar 1.0005 1.15472 2.79076
Ar 1.27873 -0.0379186 1.28034
Ar 1.59142 -1.34729 1.49168
Ar -1.25202 0.990762 1.48598
Ar 0.630855 2.75932 -1.91004
Ar 0.655779 1.09015 0.179568
Ar 1.18227 1.83009 -0.446263
Ar -0.681433 -0.808265 2.5375
Ar 2.25141 0.219556 -1.59974
Ar 2.93374 -0.231444 0.715151
15

Ar -1.75043 3.10733 -1.66047
Ar 0.150422 -0.913717 0.574553
Ar -0.923487 1.11871 -0.269937
Ar 2.41992 -1.48147 -0.0693725
Ar 0.394861 0.0869647 3.35447
Ar 0.991501 1.15352 2.80613
Ar 1.25468 -0.058483 1.27993
Ar 1.57903 -1.36368 1.48112
Ar -1.25662 0.980923 1.47311
Ar 0.638743 2.76131 -1.93987
Ar 0.668125 1.11356 0.204796
Ar 1.18739 1.85169 -0.439729
Ar -0.689313 -0.807276 2.53792
Ar 2.24262 0.223127 -1.62523
Ar 2.95434 -0.246268 0.728123
15

Ar -1.76334 3.12286 -1.67566
Ar 0.175025 -0.921278 0.577193
Ar -0.926595 1.11682 -0.25916
Ar 2.44187 -1.49376 -0.0744384
Ar 0.384784 0.103779 3.37994
Ar 0.982428 1.15198 2.82085
Ar 1.23055 -0.0788599 1.27944
Ar 1.56689 -1.3804 1.47014
Ar -1.26113 0.971306 1.46017
Ar 0.646231 2.76329 -1.96944
Ar 0.680275 1.13676 0.230487
Ar 1.19279 1.87404 -0.432992
Ar -0.696666 -0.806309 2.53847
Ar 2.23377 0.227108 -1.65052
Ar 2.9749 -0.261082 0.741053
15

Ar -1.77656 3.13797 -1.69071
Ar 0.199648 -0.928926 0.579757
Ar -0.929722 1.11492 -0.248424
Ar 2.46385 -1.50602 -0.0794787
Ar 0.374655 0.120401 3.40537
Ar 0.973281 1.15013 2.83499
Ar 1.20636 -0.0990315 1.27887
Ar 1.55507 -1.39747 1.4587
Ar -1.26554 0.96192 1.44716
Ar 0.65325 2.76524 -1.9987
Ar 0.692242 1.15975 0.256627
Ar 1.19845 1.8971 -0.426098
Ar -0.703507 -0.805371 2.53915
Ar 2.22488 0.231528 -1.6756
Ar 2.9954 -0.275888 0.753939
15

Ar -1.79005 3.15264 -1.70565
Ar 0.224275 -0.936664 0.582226
Ar -0.932868 1.11302 -0.237731
Ar 2.48588 -1.51824 -0.0844945
Ar 0.364472 0.136828 3.43075
Ar 0.964068 1.14799 2.84857
Ar 1.18213 -0.118975 1.27822
Ar 1.54367 -1.41493 1.4468
Ar -1.26986 0.952775 1.43405
Ar 0.659728 2.76719 1.97242
Ar 0.704041 1.18254 0.283202
Ar 1.20436 1.92082 -0.419092
Ar -0.709855 -0.804469 2.53996
Ar 2.21592 0.23641 -1.70048
Ar 3.01586 -0.290692 0.766782
15

Ar -1.8038 3.16682 -1.72048
Ar 0.248882 -0.944494 0.584579
Ar -0.936031 1.1111 -0.227081
Ar 2.50795 -1.53041 -0.0894868
Ar 0.35423 0.15306 3.4561
Ar 0.9548 1.14561 2.86165
Ar 1.15786 -0.138661 1.27748
Ar 1.53275 -1.43278 1.43442
Ar -1.27407 0.943879 1.42085
Ar 0.665587 2.76913 1.94397
Ar 0.715688 1.20516 0.310192
Ar 1.21049 1.94515 -0.412012
Ar -0.715732 -0.80361 2.54092
Ar 2.2069 0.241777 -1.72513
Ar 3.03627 -0.305498 0.779581
15

Ar -1.8178 3.1805 -1.73519
Ar 0.273449 -0.952421 0.58679
Ar -0.939212 1.10917 -0.216479
Ar 2.53006 -1.54253 -0.0944567
Ar 0.343926 0.169096 3.48142
Ar 0.945484 1.14303 2.87426
Ar 1.13357 -0.15806 1.27666
Ar 1.52241 -1.45107 1.42153
Ar -1.27817 0.935244 1.40753
Ar 0.670751 2.77109 1.91602
Ar 0.727196 1.2276 0.337573
Ar 1.21682 1.97005 -0.404898
Ar -0.721162 -0.802798 2.542
Ar 2.19781 0.247652 -1.74956
Ar 3.05663 -0.320309 0.792335
15

Ar -1.83202 3.19366 -1.74979
Ar 0.297949 -0.960449 0.588826
Ar -0.942409 1.10721 -0.205925
Ar 2.55222 -1.55459 -0.0994057
Ar 0.333559 0.184937 3.50671
Ar 0.936134 1.14027 2.88645
Ar 1.10928 -0.177135 1.27576
Ar 1.51274 -1.46983 1.40814
Ar -1.28214 0.926877 1.3941
Ar 0.675145 2.77307 1.88862
Ar 0.738571 1.24988 0.365323
Ar 1.22333 1.99546 -0.397781
Ar -0.726171 -0.802034 2.54323
Ar 2.18864 0.25405 -1.77375
Ar 3.07695 -0.335129 0.805046
15

Ar -1.84644 3.20627 -1.76426
Ar 0.322356 -0.968584 0.590652
Ar -0.945622 1.10521 -0.195422
Ar 2.57442 -1.56658 -0.104337
Ar 0.323126 0.200582 3.53197
Ar 0.926758 1.13737 2.89825
Ar 1.08501 -0.195841 1.27478
Ar 1.50381 -1.48908 1.39421
Ar -1.28598 0.918787 1.38053
Ar 0.678697 2.77507 1.86185
Ar 0.749822 1.272 0.393418
Ar 1.23 2.02133 -0.390692
Ar -0.730785 -0.801321 2.54458
Ar 2.17939 0.260986 -1.7977
Ar 3.09722 -0.34996 0.817714
15

Ar -1.86105 3.21831 -1.77862
Ar 0.346639 -0.976835 0.592221
Ar -0.948853 1.10317 -0.184972
Ar 2.59666 -1.5785 -0.109253
Ar 0.312627 0.216033 3.55722
Ar 0.91737 1.13435 2.90969
Ar 1.0608 -0.214125 1.27372
Ar 1.4957 -1.50886 1.37976
Ar -1.28967 0.910984 1.36681
Ar 0.681346 2.77711 1.83578
Ar 0.76096 1.29398 0.421832
Ar 1.23681 2.04763 -0.383656
Ar -0.735032 -0.800661 2.54607
Ar 2.17003 0.26847 -1.82139
Ar 3.11743 -0.364805 0.830339
15

Ar -1.87583 3.22977 -1.79285
Ar 0.370766 -0.985212 0.593482
Ar -0.9521 1.10107 -0.174579
Ar 2.61895 -1.59033 -0.114155
Ar 0.30206 0.231291 3.58246
Ar 0.907979 1.13126 2.92079
Ar 1.03669 -0.231922 1.27259
Ar 1.48847 -1.5292 1.36478
Ar -1.29319 0.903476 1.35294
Ar 0.683039 2.77916 1.81046
Ar 0.771995 1.3158 0.450539
Ar 1.24373 2.0743 -0.376695
Ar -0.738937 -0.800053 2.54768
Ar 2.16058 0.276506 -1.84483
Ar 3.13757 -0.379666 0.842922
15

Ar -1.89076 3.24063 -1.80695
Ar 0.3947 -0.993726 0.594373
Ar -0.955368 1.09892 -0.164246
Ar 2.64128 -1.60208 -0.119044
Ar 0.291426 0.246357 3.60769
Ar 0.898596 1.12811 2.93159
Ar 1.01272 -0.249156 1.27141
Ar 1.48217 -1.55013 1.34929
Ar -1.29655 0.896269 1.33888
Ar 0.683742 2.78123 1.78598
Ar 0.782934 1.33749 0.479512
Ar 1.25076 2.1013 -0.369828
Ar -0.742526 -0.799497 2.54942
Ar 2.151 0.285095 -1.86801
Ar 3.15765 -0.394546 0.855464
15

Ar -1.90583 3.25089 -1.82091
Ar 0.418403 -1.00239 0.594823
Ar -0.958657 1.09669 -0.153978
Ar 2.66366 -1.61372 -0.123922
Ar 0.280727 0.261233 3.63293
Ar 0.889232 1.12492 2.94211
Ar 0.988908 -0.265738 1.27017
Ar 1.47682 -1.57167 1.33332
Ar -1.29972 0.889371 1.32464
Ar 0.683436 2.78326 1.76238
Ar 0.793782 1.35902 0.508721
Ar 1.25788 2.12859 -0.363073
Ar -0.745825 -0.798992 2.55128
Ar 2.14129 0.294232 -1.89091
Ar 3.17766 -0.409445 0.867967
15

Ar -1.92101 3.26054 -1.83472
Ar 0.441836 -1.01123 0.594753
Ar -0.961969 1.09438 -0.143778
Ar 2.68607 -1.62526 -0.128792
Ar 0.269963 0.275921 3.65818
Ar 0.879896 1.12173 2.95235
Ar 0.965305 -0.281564 1.26889
Ar 1.47244 -1.59382 1.31689
Ar -1.30268 0.882786 1.3102
Ar 0.682119 2.78522 1.73972
Ar 0.80454 1.38039 0.538136
Ar 1.26507 2.15614 -0.356446
Ar -0.748852 -0.798535 2.55325
Ar 2.13144 0.303906 -1.91352
Ar 3.19761 -0.424364 0.880431
15

Ar -1.9363 3.26959 -1.84839
Ar 0.464962 -1.02026 0.594071
Ar -0.965307 1.09198 -0.13365
Ar 2.70851 -1.63667 -0.133656
Ar 0.259139 0.290425 3.68345
Ar 0.870597 1.11854 2.96235
Ar 0.941945 -0.296514 1.26758
Ar 1.46903 -1.61658 1.30006
Ar -1.30543 0.876519 1.29553
Ar 0.679807 2.78703 1.71809
Ar 0.815206 1.40159 0.567726
Ar 1.27233 2.18392 -0.349961
Ar -0.75163 -0.798124 2.55534
Ar 2.12144 0.314104 -1.93585
Ar 3.21748 -0.439305 0.892857
15

Ar -1.95168 3.27804 -1.86191
Ar 0.487745 -1.0295 0.592679
Ar -0.968672 1.08949 -0.1236
Ar 2.73099 -1.64796 -0.138516
Ar 0.248258 0.304745 3.70874
Ar 0.861343 1.11537 2.9721
Ar 0.918865 -0.310453 1.26625
Ar 1.46658 -1.63993 1.2829
Ar -1.30795 0.870574 1.28064
Ar 0.67653 2.78861 1.69752
Ar 0.825774 1.42259 0.597452
Ar 1.27965 2.21188 -0.343633
Ar -0.75418 -0.797755 2.55754
Ar 2.11125 0.324806 -1.95786
Ar 3.23727 -0.454267 0.905248
15

Ar -1.96714 3.2859 -1.87527
Ar 0.510155 -1.03897 0.590473
Ar -0.972069 1.08688 -0.113633
Ar 2.7535 -1.65911 -0.143377
Ar 0.237325 0.318887 3.73405
Ar 0.852142 1.11223 2.98162
Ar 0.896097 -0.323234 1.26492
Ar 1.46506 -1.66383 1.26546
Ar -1.31022 0.864951 1.26551
Ar 0.672326 2.78983 1.6781
Ar 0.836229 1.44337 0.627277
Ar 1.28703 2.24001 -0.337477
Ar -0.756522 -0.797426 2.55984
Ar 2.10088 0.33599 -1.97957
Ar 3.25698 -0.46925 0.917605
15

Ar -1.98266 3.29319 -1.88846
Ar 0.532169 -1.0487 0.587348
Ar -0.975502 1.08416 -0.103757
Ar 2.77603 -1.6701 -0.14824
Ar 0.226346 0.332852 3.75939
Ar 0.842998 1.10915 2.99093
Ar 0.87367 -0.334702 1.2636
Ar 1.46446 -1.68822 1.24783
Ar -1.31222 0.85965 1.25013
Ar 0.667243 2.79058 1.6599
Ar 0.846548 1.46388 0.657155
Ar 1.29446 2.26828 -0.331509
Ar -0.758674 -0.797134 2.56224
Ar 2.0903 0.347623 1.99906
Ar 3.2766 -0.484253 0.929928
15

Ar -1.99823 3.29993 -1.9015
Ar 0.553774 -1.05869 0.583201
Ar -0.978974 1.08131 -0.0939773
Ar 2.79859 -1.68093 -0.153109
Ar 0.215327 0.346639 3.78476
Ar 0.833919 1.10611 3.00003
Ar 0.851601 -0.344697 1.2623
Ar 1.46477 -1.71302 1.2301
Ar -1.31394 0.854667 1.2345
Ar 0.661328 2.79071 1.64299
Ar 0.856692 1.48404 0.687034
Ar 1.30196 2.29665 -0.32576
Ar -0.760654 -0.796874 2.56474
Ar 2.07949 0.35967 1.97802
Ar 3.29611 -0.499276 0.942219
15

Ar 1.98616 3.30612 -1.91436
Ar 0.574968 -1.06896 0.577943
Ar -0.982493 1.07832 -0.0843046
Ar 2.82117 -1.69157 -0.157989
Ar 0.204277 0.360249 3.81017
Ar 0.824908 1.10314 3.00892
Ar 0.829899 -0.353068 1.26102
Ar 1.46599 -1.73811 1.21237
Ar -1.31535 0.849997 1.2186
Ar 0.654631 2.79007 1.62744
Ar 0.866604 1.50379 0.71685
Ar 1.30952 2.32512 -0.320253
Ar -0.762479 -0.796642 2.56734
Ar 2.06845 0.372102 1.95733
Ar 3.31552 -0.514317 0.954478
15

Ar 1.97053 3.31181 -1.92706
Ar 0.595758 -1.07951 0.571501
Ar -0.986063 1.07519 -0.074749
Ar 2.84377 -1.70201 -0.162884
Ar 0.193206 0.373685 3.83561
Ar 0.815972 1.10024 3.01762
Ar 0.808561 -0.359677 1.25975
Ar 1.46816 -1.76337 1.19474
Ar -1.31646 0.845633 1.20245
Ar 0.647201 2.78853 1.61331
Ar 0.876197 1.523 0.746526
Ar 1.31717 2.35364 -0.315009
Ar -0.764163 -0.796435 2.57003
Ar 2.05714 0.384889 1.937
Ar 3.33479 -0.52937 0.966705
15

Ar 1.95488 3.317 -1.93959
Ar 0.616161 -1.09031 0.563833
Ar -0.989691 1.07192 -0.065325
Ar 2.86638 -1.71225 -0.167797
Ar 0.182122 0.386951 3.86109
Ar 0.807117 1.0974 3.02613
Ar 0.787576 -0.364414 1.25851
Ar 1.47136 -1.78861 1.17736
Ar -1.31723 0.841563 1.18604
Ar 0.639084 2.78597 1.60064
Ar 0.88534 1.5415 0.775968
Ar 1.32491 2.38221 -0.310055
Ar -0.765721 -0.79625 2.5728
Ar 2.04557 0.398005 1.91704
Ar 3.35392 -0.544434 0.978898
15

Ar 1.93923 3.32174 -1.95196
Ar 0.636198 -1.10134 0.554928
Ar -0.993385 1.06849 -0.0560553
Ar 2.889 -1.72227 -0.172733
Ar 0.171039 0.400054 3.88662
Ar 0.798347 1.09464 3.03445
Ar 0.76692 -0.367206 1.25727
Ar 1.47574 -1.81361 1.16035
Ar -1.31767 0.837774 1.16939
Ar 0.630327 2.78227 1.58946
Ar 0.893842 1.55909 0.805063
Ar 1.33277 2.4108 -0.30542
Ar -0.767166 -0.796081 2.57565
Ar 2.0337 0.41142 1.89747
Ar 3.37288 -0.559507 0.991056
15

Ar 1.92359 3.32603 -1.96416
Ar 0.655892 -1.11255 0.544807
Ar -0.997153 1.0649 -0.0469587
Ar 2.91162 -1.73206 -0.177696
Ar 0.159969 0.413004 3.91218
Ar 0.789661 1.09195 3.0426
Ar 0.746564 -0.368021 1.25603
Ar 1.48152 -1.83809 1.14387
Ar -1.31777 0.834248 1.15252
Ar 0.620973 2.77738 1.57977
Ar 0.901434 1.57549 0.833678
Ar 1.34078 2.43937 -0.301139
Ar -0.76851 -0.795926 2.57858
Ar 2.02155 0.425111 1.87829
Ar 3.39164 -0.574588 1.00317
15

Ar 1.90797 3.32992 -1.97619
Ar 0.675259 -1.12388 0.533528
Ar -1.001 1.06115 -0.0380568
Ar 2.93425 -1.74161 -0.182693
Ar 0.148924 0.425806 3.93778
Ar 0.781063 1.08933 3.05057
Ar 0.726477 -0.366873 1.25478
Ar 1.48905 -1.86168 1.1281
Ar -1.31751 0.830966 1.13543
Ar 0.611068 2.77125 1.57153
Ar 0.907748 1.59036 0.861672
Ar 1.34897 2.46791 -0.297252
Ar -0.769765 -0.795781 2.58159
Ar 2.00908 0.439055 1.85951
Ar 3.41019 -0.589677 1.01525
15

Ar 1.89238 3.33343 -1.98806
Ar 0.694308 -1.13528 0.52118
Ar -1.00494 1.05726 -0.0293757
Ar 2.95689 -1.75092 -0.187727
Ar 0.137918 0.438462 3.96342
Ar 0.772551 1.08677 3.05838
Ar 0.706632 -0.36382 1.2535
Ar 1.49876 -1.88399 1.11317
Ar -1.31691 0.827906 1.11817
Ar 0.600656 2.7639 1.56471
Ar 0.912307 1.60331 0.888917
Ar 1.35737 2.4964 -0.293806
Ar -0.770941 -0.795641 2.58467
Ar 1.9963 0.45323 1.84113
Ar 3.42849 -0.604772 1.02728
15

Ar 1.87683 3.33658 -1.99978
Ar 0.713029 -1.14666 0.507887
Ar -1.00897 1.05321 -0.0209463
Ar 2.97952 -1.75997 -0.192803
Ar 0.126966 0.450976 3.98909
Ar 0.764126 1.08429 3.06602
Ar 0.687004 -0.358957 1.2522
Ar 1.51118 -1.90464 1.09918
Ar -1.31597 0.82504 1.10078
Ar 0.589783 2.75536 1.55923
Ar 0.914563 1.61396 0.915328
Ar 1.36604 2.52482 -0.290856
Ar -0.772049 -0.795504 2.58782
Ar 1.98321 0.467615 1.82314
Ar 3.44651 -0.619875 1.03925
15

Ar 1.86133 3.3394 1.98867
Ar 0.7314 -1.15797 0.493794
Ar -1.01311 1.04901 -0.0128059
Ar 3.00217 -1.76875 -0.197927
Ar 0.116085 0.463349 0.0147961
Ar 0.755787 1.08187 3.0735
Ar 0.667585 -0.352406 1.25088
Ar 1.52681 -1.92331 1.08614
Ar -1.3147 0.822341 1.08329
Ar 0.578494 2.7457 1.55501
Ar 0.913986 1.62202 0.940907
Ar 1.37502 2.55316 -0.288467
Ar -0.773097 -0.795365 2.59104
Ar 1.9698 0.482193 1.80555
Ar 3.4642 -0.634987 1.05116
15

Ar 1.84589 3.34191 1.97727
Ar 0.749381 -1.16915 0.47907
Ar -1.01736 1.04469 -0.00499971
Ar 3.02483 -1.77728 -0.203103
Ar 0.10529 0.475586 0.0405273
Ar 0.747534 1.07951 3.08083
Ar 0.648378 -0.344305 1.24953
Ar 1.54601 -1.93988 1.07395
Ar -1.31311 0.819778 1.06577
Ar 0.566837 2.73502 1.55196
Ar 0.910191 1.62737 0.965757
Ar 1.3844 2.58139 -0.286712
Ar -0.774094 -0.795222 2.59434
Ar 1.95607 0.496946 1.78835
Ar 3.48152 -0.650113 1.063
15

Ar 1.83052 3.34414 1.96602
Ar 0.766913 -1.18013 0.463898
Ar -1.02172 1.04024 0.00241834
Ar 3.0475 -1.78553 -0.208338
Ar 0.0945976 0.487687 0.0662817
Ar 0.739366 1.07721 3.08801
Ar 0.629391 -0.334801 1.24817
Ar 1.56887 -1.95443 1.06244
Ar -1.31124 0.817318 1.04829
Ar 0.554858 2.7234 1.54999
Ar 0.903061 1.6301 0.990066
Ar 1.39425 2.6095 -0.285676
Ar -0.775048 -0.795069 2.5977
Ar 1.94204 0.51186 1.77153
Ar 3.49841 -0.665256 1.07475
15

Ar 1.81522 3.34612 1.95493
Ar 0.783922 -1.1909 0.448469
Ar -1.0262 1.0357 0.0093863
Ar 3.07019 -1.79352 -0.213637
Ar 0.0840259 0.499657 0.0920547
Ar 0.731279 1.07497 3.09503
Ar 0.610644 -0.324034 1.24681
Ar 1.59518 -1.96722 1.05138
Ar -1.30911 0.814924 1.03092
Ar 0.542605 2.71096 1.549
Ar 0.892777 1.6305 1.01405
Ar 1.40466 2.6375 -0.285452
Ar -0.775968 -0.794905 2.60113
Ar 1.92771 0.526919 1.75508
Ar 3.51483 -0.680426 1.0864
15

Ar 1.79999 3.34786 1.94399
Ar 0.80032 -1.20142 0.43298
Ar -1.03079 1.03108 0.0158317
Ar 3.09291 -1.80124 -0.219002
Ar 0.0735922 0.511496 0.117841
Ar 0.723274 1.07277 3.10189
Ar 0.592166 -0.312136 1.24545
Ar 1.62452 -1.97862 1.04057
Ar -1.30674 0.812558 1.01375
Ar 0.530126 2.69781 1.5489
Ar 0.879751 1.62897 1.0379
Ar 1.41573 2.66538 -0.28614
Ar -0.776859 -0.794725 2.60463
Ar 1.9131 0.542112 1.73899
Ar 3.5307 -0.695631 1.09794
15

Ar 1.78486 3.34938 1.93319
Ar 0.816011 -1.21169 0.417624
Ar -1.03551 1.0264 0.0216704
Ar 3.11565 -1.8087 -0.224439
Ar 0.0633144 0.523207 0.143636
Ar 0.715348 1.07062 3.10862
Ar 0.573993 -0.299224 1.24413
Ar 1.65633 -1.98901 1.02988
Ar -1.30418 0.810178 0.996882
Ar 0.517466 2.68403 1.54963
Ar 0.864503 1.62588 1.06176
Ar 1.42755 2.69316 -0.287842
Ar -0.777729 -0.794527 2.6082
Ar 1.8982 0.557423 1.72325
Ar 3.54596 -0.710884 1.10936
15

Ar 1.76981 3.3507 1.92253
Ar 0.830897 -1.22175 0.402582
Ar -1.04033 1.0217 0.0268062
Ar 3.13843 -1.81589 -0.22995
Ar 0.0532102 0.534795 0.169433
Ar 0.707498 1.0685 3.1152
Ar 0.556166 -0.285397 1.24284
Ar 1.69008 -1.99869 1.01922
Ar -1.30146 0.807741 0.980423
Ar 0.504674 2.66973 1.5511
Ar 0.847548 1.62159 1.08569
Ar 1.44024 2.72087 -0.290652
Ar -0.778584 -0.794306 2.61183
Ar 1.88305 0.572841 1.70785
Ar 3.56055 -0.7262 1.12063
15

Ar 1.75485 3.35185 1.91201
Ar 0.84489 -1.23162 0.388015
Ar -1.04525 1.01701 0.0311302
Ar 3.16124 -1.82283 -0.235537
Ar 0.0432971 0.546262 0.195224
Ar 0.699724 1.06643 3.12166
Ar 0.538726 -0.270737 1.24161
Ar 1.72532 1.9921 1.00855
Ar -1.29863 0.805202 0.964498
Ar 0.491794 2.65498 1.55328
Ar 0.829335 1.61634 1.10971
Ar 1.45387 2.74855 -0.294655
Ar -0.779429 -0.79406 2.61553
Ar 1.86766 0.588352 1.69278
Ar 3.57438 -0.741594 1.13174
15

Ar 1.73999 3.35283 1.90162
Ar 0.857917 -1.24136 0.374051
Ar -1.05027 1.01236 0.034522
Ar 3.18409 -1.82952 -0.241203
Ar 0.033592 0.557613 0.221002
Ar 0.692025 1.06438 3.12799
Ar 0.521716 -0.25531 1.24044
Ar 1.76165 1.98321 0.997853
Ar -1.29574 0.802514 0.94924
Ar 0.478872 2.63986 1.55612
Ar 0.810219 1.61032 1.13383
Ar 1.46853 2.77626 -0.299909
Ar -0.78027 -0.793786 2.61929
Ar 1.85204 0.603942 1.67802
Ar 3.58741 -0.757084 1.14267
15

Ar 1.72523 3.35367 1.89136
Ar 0.869929 -1.25104 0.360782
Ar -1.05535 1.0078 0.036851
Ar 3.20699 -1.83597 -0.246951
Ar 0.0241106 0.568855 0.246759
Ar 0.684401 1.06236 3.13421
Ar 0.50517 -0.23917 1.23936
Ar 1.7988 1.97454 0.987136
Ar -1.29283 0.799626 0.934791
Ar 0.465953 2.62445 1.55958
Ar 0.790473 1.60365 1.15801
Ar 1.48426 2.80405 -0.306439
Ar -0.781112 -0.793479 2.62312
Ar 1.83621 0.619598 1.66357
Ar 3.59955 -0.772682 1.15341
15

Ar 1.71057 3.35436 1.88121
Ar 0.880911 -1.26073 0.348255
Ar -1.0605 1.00335 0.0379804
Ar 3.22993 -1.84218 -0.25278
Ar 0.0148674 0.579995 0.272486
Ar 0.67685 1.06037 3.14034
Ar 0.489115 -0.222358 1.23836
Ar 1.83654 1.96602 0.976404
Ar -1.28996 0.796492 0.921296
Ar 0.453079 2.60879 1.56364
Ar 0.770297 1.59639 1.1822
Ar 1.50107 2.83198 -0.314233
Ar -0.781959 -0.793138 2.62702
Ar 1.82018 0.635303 1.64942
Ar 3.61077 -0.788401 1.16394
15

Ar 1.69601 3.35493 1.87119
Ar 0.890881 -1.2705 0.336474
Ar -1.06568 0.999068 0.0377717
Ar 3.25292 -1.84816 -0.258693
Ar 0.00587465 0.591042 0.298171
Ar 0.669371 1.05838 3.14638
Ar 0.473568 -0.204914 1.23746
Ar 1.87473 1.95764 0.965665
Ar -1.28717 0.79306 0.908902
Ar 0.440295 2.59294 1.56829
Ar 0.749839 1.5886 1.2064
Ar 1.51896 2.86013 -0.323243
Ar -0.782816 -0.792758 2.63097
Ar 1.80398 0.651037 1.63555
Ar 3.62102 -0.804243 1.17424
15

Ar 1.68155 3.35539 1.86127
Ar 0.899889 -1.28041 0.325407
Ar -1.07089 0.99498 0.036092
Ar 3.27596 -1.85393 -0.264689
Ar -0.00285767 0.602004 0.323802
Ar 0.661963 1.05642 3.15234
Ar 0.458536 -0.186873 1.23667
Ar 1.91324 1.94938 0.954925
Ar -1.28452 0.789282 0.897747
Ar 0.427641 2.57695 1.57352
Ar 0.729207 1.58029 1.23058
Ar 1.53785 2.88852 -0.333388
Ar -0.783686 -0.792338 2.635
Ar 1.78762 0.666787 1.62196
Ar 3.63027 -0.820204 1.1843
15

Ar 1.6672 3.35574 1.85146
Ar 0.908011 -1.2905 0.314992
Ar -1.07611 0.991121 0.032822
Ar 3.29906 -1.85949 -0.27077
Ar -0.0113229 0.61289 0.349365
Ar 0.654626 1.05446 3.15822
Ar 0.444011 -0.168275 1.236
Ar 1.95198 1.94125 0.944191
Ar -1.28202 0.78511 0.887953
Ar 0.415161 2.56086 1.57933
Ar 0.708481 1.57148 1.25471
Ar 1.55768 2.9172 -0.344564
Ar -0.784573 -0.791874 2.63908
Ar 1.77111 0.682537 1.60864
Ar 3.63848 -0.836267 1.1941
15

Ar 1.65295 3.356 1.84175
Ar 0.915337 -1.3008 0.30515
Ar -1.08132 0.987516 0.027865
Ar 3.32221 -1.86484 -0.276936
Ar -0.019518 0.623717 0.374843
Ar 0.647358 1.0525 3.16402
Ar 0.429979 -0.149165 1.23546
Ar 1.99088 1.93327 0.933467
Ar -1.27974 0.780502 0.87962
Ar 0.402894 2.54471 1.58573
Ar 0.68773 1.56215 1.27878
Ar 1.57836 2.94619 -0.356652
Ar -0.785479 -0.791363 2.64323
Ar 1.75447 0.698275 1.59558
Ar 3.64567 -0.852405 1.20363
15

Ar 1.6388 3.35616 1.83214
Ar 0.921969 -1.31132 0.295793
Ar -1.08654 0.984181 0.0211546
Ar 3.34541 -1.87 -0.283186
Ar -0.0274396 0.634505 0.400215
Ar 0.640159 1.05054 3.16976
Ar 0.416416 -0.129595 1.23506
Ar 2.0299 1.92544 0.922756
Ar -1.27769 0.775422 0.872814
Ar 0.39088 2.52852 1.59272
Ar 0.667 1.55229 1.30278
Ar 1.59978 2.9755 -0.369529
Ar -0.786407 -0.790803 2.64744
Ar 1.73773 0.713985 1.58277
Ar 3.65181 -0.868579 1.21286
15

Ar 1.62478 3.35624 1.82262
Ar 0.928006 -1.32206 0.286833
Ar -1.09175 0.981125 0.0126607
Ar 3.36866 -1.87497 -0.28952
Ar -0.0350917 0.645278 0.425457
Ar 0.633031 1.04857 3.17542
Ar 0.403293 -0.109625 1.23482
Ar 2.06898 1.9178 0.912063
Ar -1.27588 0.769842 0.867565
Ar 0.379157 2.51232 1.60032
Ar 0.646324 1.54188 1.32669
Ar 1.62183 3.00511 -0.383075
Ar -0.78736 -0.790191 2.65171
Ar 1.72088 0.729652 1.57021
Ar 3.6569 -0.884737 1.22177
15

Ar 1.61089 3.35624 1.81318
Ar 0.933543 -1.333 0.278188
Ar -1.09697 0.978347 0.00239174
Ar 3.39197 -1.87976 -0.295937
Ar -0.0424852 0.656062 0.45054
Ar 0.625972 1.0466 3.18103
Ar 0.390583 -0.0893264 1.23475
Ar 2.10809 1.91037 0.90139
Ar -1.27431 0.763744 0.863864
Ar 0.367763 2.49614 1.60854
Ar 0.625724 1.53091 1.35052
Ar 1.64443 3.035 -0.397179
Ar -0.788338 -0.789525 2.65604
Ar 1.70396 0.745266 1.55789
Ar 3.66095 -0.900823 1.23035
15

Ar 1.59711 3.35617 1.80382
Ar 0.938669 -1.34414 0.269785
Ar -1.10221 0.975834 -0.00960623
Ar 3.41534 -1.88437 -0.302437
Ar -0.049637 0.666889 0.475431
Ar 0.618985 1.04461 3.18657
Ar 0.378258 -0.0687774 1.23488
Ar 2.14722 1.90318 0.890743
Ar -1.27298 0.757117 0.861666
Ar 0.356729 2.48 1.61738
Ar 0.605219 1.51934 1.37425
Ar 1.66747 3.06515 -0.411737
Ar -0.789342 -0.788803 2.66043
Ar 1.68697 0.760819 1.54579
Ar 3.66398 -0.916772 1.23857
15

Ar 1.58346 3.35603 1.79453
Ar 0.943464 -1.35544 0.261563
Ar -1.10748 0.973562 -0.0232549
Ar 3.43875 -1.88882 -0.309019
Ar -0.0565696 0.677784 0.50009
Ar 0.61207 1.04261 3.19207
Ar 0.366293 -0.0480647 1.23524
Ar 2.18633 1.89626 0.880125
Ar -1.27188 0.749957 0.860892
Ar 0.346086 2.46392 1.62687
Ar 0.584819 1.50715 1.39789
Ar 1.69088 3.09552 -0.426661
Ar -0.790374 -0.788022 2.66487
Ar 1.66993 0.776305 1.53392
Ar 3.666 -0.932518 1.24641
15

Ar 1.56993 3.35583 1.78532
Ar 0.947996 -1.36687 0.253471
Ar -1.11281 0.971499 -0.038451
Ar 3.46222 -1.8931 -0.315683
Ar -0.0633117 0.68879 0.52447
Ar 0.605228 1.04059 3.19751
Ar 0.354673 -0.0272791 1.23586
Ar 2.22541 1.88963 0.869541
Ar -1.27099 0.742267 0.86144
Ar 0.335862 2.44794 1.63702
Ar 0.564532 1.49432 1.42145
Ar 1.71458 3.12609 -0.441879
Ar -0.791433 -0.787181 2.66937
Ar 1.65286 0.791718 1.52226
Ar 3.66703 -0.947996 1.25384
15

Ar 1.55652 3.35556 1.77617
Ar 0.952323 -1.37842 0.245468
Ar -1.11821 0.96961 -0.0550748
Ar 3.48573 -1.89723 -0.322426
Ar -0.0698976 0.699954 0.54852
Ar 0.598461 1.03855 3.20291
Ar 0.343386 -0.00651766 1.23678
Ar 2.26445 1.88331 0.858997
Ar -1.2703 0.734054 0.863192
Ar 0.326077 2.43207 1.64784
Ar 0.54436 1.48083 1.44493
Ar 1.73851 3.15683 -0.457329
Ar -0.792518 -0.786278 2.67393
Ar 1.63578 0.807057 1.51079
Ar 3.66709 -0.963146 1.26086
15

Ar 1.54323 3.35524 1.76709
Ar 0.956494 -1.39006 0.237521
Ar -1.12369 0.967858 -0.0729986
Ar 3.50929 -1.9012 -0.329249
Ar -0.076367 0.71133 0.572178
Ar 0.591771 1.03648 3.20826
Ar 0.33243 0.0141175 1.23803
Ar 2.30343 1.87733 0.848497
Ar -1.26981 0.725327 0.866025
Ar 0.31675 2.41634 1.65933
Ar 0.524305 1.46666 1.46835
Ar 1.76263 3.18772 -0.472961
Ar -0.793629 -0.785312 2.67853
Ar 1.61873 0.82232 1.49951
Ar 3.66621 -0.977911 1.26742
15

Ar 1.53006 3.35486 1.75806
Ar 0.96055 -1.40178 0.229607
Ar -1.12927 0.966207 -0.0920937
Ar 3.53289 -1.90503 -0.336148
Ar -0.0827651 0.72298 0.595379
Ar 0.585161 1.03438 3.21357
Ar 0.321812 0.0345187 1.23967
Ar 2.34234 1.87171 0.838048
Ar -1.2695 0.716096 0.869814
Ar 0.307896 2.4008 1.67151
Ar 0.504361 1.4518 1.49174
Ar 1.78689 3.21874 -0.488733
Ar -0.794763 -0.784283 2.68319
Ar 1.60171 0.837509 1.4884
Ar 3.6644 -0.992244 1.27353
15

Ar 1.517 3.35442 1.74909
Ar 0.964526 -1.41356 0.221707
Ar -1.13495 0.964622 -0.112236
Ar 3.55653 -1.90872 -0.343111
Ar -0.0891417 0.734969 0.618049
Ar 0.578633 1.03223 3.21884
Ar 0.311548 0.0545737 1.24174
Ar 2.38116 1.86645 0.827655
Ar -1.26938 0.706372 0.874443
Ar 0.299533 2.38546 1.68437
Ar 0.484524 1.43624 1.51511
Ar 1.81126 3.24986 -0.504611
Ar -0.795917 -0.783189 2.68789
Ar 1.58475 0.852628 1.47744
Ar 3.66169 -1.00611 1.27917
15

Ar 1.50406 3.35394 1.74016
Ar 0.968451 -1.42538 0.213809
Ar -1.14075 0.963072 -0.13331
Ar 3.5802 -1.91226 -0.350133
Ar -0.0955508 0.747367 0.640111
Ar 0.572191 1.03003 3.22408
Ar 0.301659 0.0741654 1.2443
Ar 2.41989 1.86158 0.817322
Ar -1.26945 0.696165 0.879802
Ar 0.291664 2.37036 1.69789
Ar 0.464785 1.41997 1.53849
Ar 1.8357 3.28107 -0.520564
Ar -0.797088 -0.782032 2.69264
Ar 1.56788 0.867679 1.46663
Ar 3.65812 -1.01948 1.28433
15

Ar 1.49124 3.3534 1.73129
Ar 0.97235 -1.43724 0.205902
Ar -1.14665 0.96153 -0.155209
Ar 3.60388 -1.91567 -0.357212
Ar -0.102049 0.760251 0.661482
Ar 0.565839 1.02777 3.22928
Ar 0.292172 0.0931733 1.24739
Ar 2.45853 1.8571 0.807051
Ar -1.26972 0.685486 0.885793
Ar 0.284286 2.35554 1.71207
Ar 0.445134 1.40302 1.56192
Ar 1.86019 3.31235 -0.536569
Ar -0.798272 -0.78081 2.69742
Ar 1.55113 0.882669 1.45593
Ar 3.65372 -1.03233 1.289
15

Ar 1.47852 3.35282 1.72245
Ar 0.976243 -1.44911 0.197981
Ar -1.15268 0.959973 -0.177839
Ar 3.62758 -1.91894 -0.364347
Ar -0.108696 0.773697 0.682079
Ar 0.559581 1.02544 3.23446
Ar 0.283119 0.111472 1.25108
Ar 2.49705 1.85302 0.796846
Ar -1.27021 0.674345 0.892331
Ar 0.277394 2.34102 1.7269
Ar 0.425572 1.38538 1.58544
Ar 1.88469 3.3437 -0.552606
Ar -0.799462 -0.779527 2.70225
Ar 1.53453 0.897605 1.44533
Ar 3.64853 -1.04466 1.29319
15

Ar 1.46592 3.35219 1.71366
Ar 0.98015 -1.46098 0.190043
Ar -1.15882 0.95838 -0.201115
Ar 3.65129 -1.92208 -0.371537
Ar -0.11555 0.787782 0.70182
Ar 0.553422 1.02304 3.23961
Ar 0.274532 0.128941 1.25539
Ar 2.53545 1.84933 0.786707
Ar -1.27092 0.662753 0.899342
Ar 0.27098 2.32685 1.74237
Ar 0.40609 1.36709 1.60909
Ar 1.9092 3.3751 -0.568659
Ar -0.800653 -0.778182 2.7071
Ar 1.51809 0.912494 1.43482
Ar 3.64259 -1.05646 1.2969
15

Ar 1.45343 3.35151 1.70491
Ar 0.984086 -1.47285 0.182087
Ar -1.16507 0.956737 -0.224965
Ar 3.67498 -1.92508 -0.37878
Ar -0.122664 0.802578 0.720626
Ar 0.547367 1.02055 3.24474
Ar 0.266443 0.145461 1.26038
Ar 2.57374 1.84604 0.776632
Ar -1.27189 0.650721 0.906761
Ar 0.26503 2.31305 1.75844
Ar 0.386678 1.34818 1.63294
Ar 1.93368 3.40654 -0.584708
Ar -0.801838 -0.776779 2.71199
Ar 1.50185 0.927346 1.42436
Ar 3.63595 -1.06775 1.30014
15

Ar 1.44105 3.35079 1.69619
Ar 0.988066 -1.48471 0.174113
Ar -1.17144 0.955036 -0.249323
Ar 3.69866 -1.92795 -0.386066
Ar -0.130089 0.818151 0.738425
Ar 0.541426 1.01795 3.24984
Ar 0.258882 0.160924 1.26606
Ar 2.6119 1.84312 0.76662
Ar -1.27312 0.638261 0.914534
Ar 0.25953 2.29965 1.77511
Ar 0.367325 1.3287 1.65701
Ar 1.95813 3.43801 -0.600742
Ar -0.803007 -0.775322 2.7169
Ar 1.48582 0.94217 1.41395
Ar 3.62864 -1.07854 1.30292
15

Ar 1.42877 3.35 1.68751
Ar 0.992103 -1.49654 0.166123
Ar -1.17792 0.953274 -0.27413
Ar 3.72231 -1.93068 -0.393392
Ar -0.137868 0.834552 0.755159
Ar 0.535605 1.01525 3.25493
Ar 0.25187 0.175232 1.27245
Ar 2.64994 1.84058 0.756668
Ar -1.27465 0.625388 0.922615
Ar 0.254465 2.28666 1.79233
Ar 0.348023 1.3087 1.68138
Ar 1.9825 3.46952 -0.61675
Ar -0.804151 -0.773814 2.72183
Ar 1.47003 0.956975 1.40357
Ar 3.62073 -1.08884 1.30526
15

Ar 1.4166 3.34917 1.67885
Ar 0.996211 -1.50835 0.158119
Ar -1.1845 0.951448 -0.299337
Ar 3.74592 -1.93327 -0.400757
Ar -0.146032 0.851819 0.770786
Ar 0.52991 1.01243 3.26001
Ar 0.245421 0.188303 1.27953
Ar 2.68785 1.83839 0.74677
Ar -1.27647 0.612114 0.930964
Ar 0.249817 2.27411 1.81007
Ar 0.328764 1.28823 1.7061
Ar 2.0068 3.50104 -0.632722
Ar -0.805259 -0.772262 2.72678
Ar 1.4545 0.971772 1.3932
Ar 3.61225 -1.09868 1.30718
15

Ar 1.40454 3.34827 1.67023
Ar 1.0004 -1.52011 0.150106
Ar -1.1912 0.949564 -0.324895
Ar 3.76947 -1.93572 -0.408163
Ar -0.1546 0.869971 0.785279
Ar 0.524348 1.00946 3.26507
Ar 0.239537 0.200074 1.28729
Ar 2.72562 1.83653 0.73692
Ar -1.27861 0.598454 0.939548
Ar 0.245569 2.262 1.82832
Ar 0.309542 1.26735 1.73124
Ar 2.031 3.53258 -0.64865
Ar -0.80632 -0.770673 2.73174
Ar 1.43923 0.986574 1.38281
Ar 3.60325 -1.10808 1.30869
15

Ar 1.39258 3.34732 1.66163
Ar 1.00469 -1.53183 0.142087
Ar -1.19799 0.947627 -0.350764
Ar 3.79294 -1.93802 -0.415608
Ar -0.163572 0.889006 0.798634
Ar 0.518926 1.00634 3.27013
Ar 0.234208 0.210501 1.29568
Ar 2.76324 1.83499 0.727112
Ar -1.28108 0.584424 0.948337
Ar 0.241703 2.25035 1.84703
Ar 0.290351 1.24612 1.75686
Ar 2.05508 3.56414 -0.664527
Ar -0.807319 -0.769053 2.73671
Ar 1.42423 1.00139 1.37241
Ar 3.59379 -1.11707 1.30984
15

Ar 1.38073 3.34632 1.65306
Ar 1.00908 -1.5435 0.134068
Ar -1.20487 0.945646 -0.376905
Ar 3.81633 -1.94016 -0.423095
Ar -0.172937 0.908887 0.810863
Ar 0.513651 1.00306 3.27518
Ar 0.229414 0.219562 1.30462
Ar 2.8007 1.83375 0.717339
Ar -1.28389 0.570041 0.957307
Ar 0.238201 2.23915 1.86616
Ar 0.271187 1.22461 1.78302
Ar 2.07901 3.59571 -0.680346
Ar -0.808244 -0.767414 2.74166
Ar 1.40951 1.01624 1.36198
Ar 3.5839 -1.12565 1.31063
15

Ar 1.36898 3.34526 1.64452
Ar 1.01359 -1.55511 0.126055
Ar -1.21185 0.943635 -0.403288
Ar 3.83962 -1.94215 -0.430624
Ar -0.182663 0.929569 0.821997
Ar 0.508531 0.999588 3.28023
Ar 0.225125 0.227251 1.31405
Ar 2.83798 1.8328 0.707592
Ar -1.28704 0.555318 0.966436
Ar 0.235045 2.2284 1.8857
Ar 0.252044 1.20289 1.80978
Ar 2.10279 3.62729 -0.696101
Ar -0.809078 -0.76577 2.74659
Ar 1.39508 1.03113 1.35151
Ar 3.57362 -1.13385 1.3111
15

Ar 1.35734 3.34414 1.63599
Ar 1.01824 -1.56665 0.118053
Ar -1.21891 0.941609 -0.429882
Ar 3.86278 -1.94396 -0.438197
Ar -0.192709 0.950994 0.832087
Ar 0.503572 0.995914 3.28529
Ar 0.221306 0.233572 1.32387
Ar 2.87505 1.83211 0.697856
Ar -1.29053 0.540274 0.975705
Ar 0.232218 2.2181 1.9056
Ar 0.232914 1.18101 1.83718
Ar 2.12637 3.65888 -0.71178
Ar -0.809807 -0.764137 2.75151
Ar 1.38093 1.04607 1.34099
Ar 3.56301 -1.14168 1.31127
15

Ar 1.3458 3.34296 1.62749
Ar 1.02303 -1.57812 0.11007
Ar -1.22605 0.939588 -0.45666
Ar 3.88581 -1.9456 -0.445816
Ar -0.203015 0.97309 0.841197
Ar 0.498782 0.992018 3.29036
Ar 0.217915 0.238537 1.33398
Ar 2.91188 1.83168 0.688113
Ar -1.29435 0.524925 0.985097
Ar 0.229702 2.20826 1.92583
Ar 0.213786 1.15904 1.86527
Ar 2.14975 3.69047 -0.727379
Ar -0.810414 -0.762528 2.75639
Ar 1.36704 1.06107 1.33042
Ar 3.55209 -1.14916 1.31117
15

Ar 1.33437 3.34173 1.61901
Ar 1.02798 -1.58951 0.102113
Ar -1.23325 0.937594 -0.483598
Ar 3.90868 -1.94704 -0.453483
Ar -0.213514 0.995768 0.849406
Ar 0.494169 0.987882 3.29546
Ar 0.21491 0.242183 1.34428
Ar 2.94844 1.83152 0.678344
Ar -1.29849 0.509287 0.994598
Ar 0.22748 2.19886 1.94636
Ar 0.194646 1.13703 1.89409
Ar 2.1729 3.72207 -0.742895
Ar -0.810884 -0.76096 2.76123
Ar 1.35343 1.07614 1.3198
Ar 3.54091 -1.15631 1.31084
15

Ar 1.32305 3.34043 1.61054
Ar 1.03311 -1.60081 0.0941902
Ar -1.24051 0.935656 -0.51067
Ar 3.93138 -1.94828 -0.461202
Ar -0.224124 1.01893 0.856803
Ar 0.489738 0.983487 3.30058
Ar 0.212253 0.244554 1.35467
Ar 2.98467 1.83164 0.668522
Ar -1.30295 0.493377 1.00419
Ar 0.225538 2.18989 1.96716
Ar 0.175477 1.11503 1.92364
Ar 2.19578 3.75365 -0.758328
Ar -0.811202 -0.75945 2.76603
Ar 1.34007 1.09128 1.30911
Ar 3.52949 -1.16314 1.3103
15

Ar 1.31183 3.33907 1.6021
Ar 1.03843 -1.61201 0.0863098
Ar -1.24781 0.933807 -0.537854
Ar 3.95388 -1.94931 -0.468976
Ar -0.234753 1.04245 0.863489
Ar 0.485497 0.978812 3.30574
Ar 0.209907 0.245705 1.36506
Ar 3.02052 1.83206 0.658616
Ar -1.3077 0.477213 1.01387
Ar 0.223858 2.18133 1.98819
Ar 0.156263 1.09309 1.95393
Ar 2.21838 3.78522 -0.773677
Ar -0.811354 -0.758016 2.77079
Ar 1.32696 1.1065 1.29837
Ar 3.51786 -1.16966 1.30958
15

Ar 1.30073 3.33765 1.59367
Ar 1.04396 -1.62312 0.078481
Ar -1.25513 0.932087 -0.565126
Ar 3.97618 -1.95012 -0.476809
Ar -0.245299 1.0662 0.869575
Ar 0.481453 0.97384 3.31094
Ar 0.20784 0.245693 1.37535
Ar 3.05591 1.83284 0.648584
Ar -1.31274 0.460812 1.02363
Ar 0.222429 2.17316 2.00944
Ar 0.13698 1.07123 1.98496
Ar 2.24065 3.81675 -0.788946
Ar -0.811326 -0.756679 2.77549
Ar 1.31409 1.12179 1.28759
Ar 3.50605 -1.17588 1.30871
15

Ar 1.28973 3.33615 1.58526
Ar 1.04972 -1.63411 0.0707134
Ar -1.26246 0.930546 -0.592464
Ar 3.99826 -1.95069 -0.484705
Ar -0.255645 1.09001 0.875181
Ar 0.477609 0.968551 3.31619
Ar 0.206027 0.244583 1.38548
Ar 3.09074 1.83404 0.638373
Ar -1.31804 0.444192 1.03344
Ar 0.221236 2.16536 2.03087
Ar 0.117606 1.04948 2.01672
Ar 2.26257 3.84821 -0.804141
Ar -0.811108 -0.755457 2.78014
Ar 1.30144 1.13717 1.27677
Ar 3.49409 -1.1818 1.30773
15

Ar 1.27885 3.33459 1.57686
Ar 1.05575 -1.64499 0.0630166
Ar -1.26977 0.929244 -0.619845
Ar 0.0200859 -1.95102 -0.492667
Ar -0.265658 1.11369 0.880439
Ar 0.473973 0.962928 3.3215
Ar 0.204442 0.242446 1.39537
Ar 3.1249 1.83578 0.627915
Ar -1.32359 0.427371 1.04331
Ar 0.220267 2.15792 2.05245
Ar 0.0981176 1.02787 2.04916
Ar 2.28411 3.87957 -0.819269
Ar -0.810691 -0.754372 2.78473
Ar 1.28901 1.15263 1.26591
Ar 3.48198 -1.18742 1.30666
15

Ar 1.26808 3.33295 1.56848
Ar 1.06207 -1.65574 0.0554055
Ar -1.27704 0.928258 -0.647239
Ar 0.0416565 -1.95109 -0.5007
Ar -0.27519 1.13702 0.8855
Ar 0.470549 0.956955 3.32688
Ar 0.203067 0.239353 1.40497
Ar 3.15826 1.83822 0.617119
Ar -1.32936 0.410366 1.05323
Ar 0.21951 2.15082 2.07416
Ar 0.0784918 1.0064 2.08226
Ar 2.30524 3.91077 -0.834345
Ar -0.81007 -0.753441 2.78927
Ar 1.27678 1.16816 1.25503
Ar 3.46974 -1.19275 1.30553
15

Ar 1.25743 3.33124 1.56011
Ar 1.06868 -1.66636 0.047906
Ar -1.28423 0.927682 -0.67462
Ar 0.0629517 -1.9509 -0.508807
Ar -0.284078 1.15974 0.890534
Ar 0.467343 0.950617 3.33237
Ar 0.201886 0.235384 1.41425
Ar 3.19068 1.84152 0.605867
Ar -1.33535 0.393196 1.06318
Ar 0.218953 2.14403 2.09594
Ar 0.0587078 0.985071 2.11595
Ar 2.32591 3.94173 -0.849384
Ar -0.809244 -0.752684 2.79376
Ar 1.26475 1.18377 1.24412
Ar 3.45739 -1.19778 1.30437
15

Ar 1.24689 3.32944 1.55176
Ar 1.07562 -1.67684 0.0405305
Ar -1.29131 0.927636 -0.70196
Ar 0.0839561 -1.95044 -0.516992
Ar -0.292147 1.18154 0.895738
Ar 0.46436 0.943903 3.33798
Ar 0.200883 0.230616 1.42317
Ar 3.222 1.84593 0.594007
Ar -1.34152 0.375877 1.07316
Ar 0.218583 2.13754 2.11777
Ar 0.0387468 0.963883 2.15018
Ar 2.34609 3.97235 -0.864407
Ar -0.808211 -0.752116 2.79821
Ar 1.2529 1.19944 1.2332
Ar 3.44494 -1.20252 1.30321
15

Ar 1.23648 3.32756 1.54341
Ar 1.08291 -1.68717 0.033291
Ar -1.29823 0.92827 -0.729226
Ar 0.104656 -1.94971 -0.525256
Ar -0.299228 1.20209 0.901335
Ar 0.461606 0.936803 3.34374
Ar 0.200044 0.225131 1.43175
Ar 3.25206 1.85172 0.581355
Ar -1.34787 0.358427 1.08317
Ar 0.218389 2.13133 2.13961
Ar 0.0185928 0.942822 2.18489
Ar 2.36573 0.00250002 -0.879441
Ar -0.806978 -0.751752 2.80261
Ar 1.24123 1.21518 1.22226
Ar 3.43238 -1.20696 1.30206
15

Ar 1.2262 3.32559 1.53507
Ar 1.09057 -1.69735 0.0261995
Ar -1.30494 0.929772 -0.756382
Ar 0.125037 -1.94871 -0.533599
Ar -0.305172 1.22107 0.907571
Ar 0.459088 0.929311 3.34966
Ar 0.199358 0.219004 1.43996
Ar 3.2807 1.85916 0.567701
Ar -1.35438 0.340862 1.0932
Ar 0.218361 2.12538 2.16144
Ar -0.00176716 0.921869 2.22
Ar 2.38478 0.0320028 -0.894514
Ar -0.805549 -0.751603 2.80697
Ar 1.22975 1.23097 1.21131
Ar 3.41973 -1.2111 1.30095
15

Ar 1.21605 3.32353 1.52675
Ar 1.09863 -1.70736 0.0192684
Ar -1.31137 0.932373 -0.783392
Ar 0.145087 -1.94743 -0.542018
Ar -0.309878 1.23818 0.914692
Ar 0.456815 0.921424 3.35579
Ar 0.198811 0.212313 1.44782
Ar 3.30784 1.8685 0.552824
Ar -1.36105 0.323196 1.10323
Ar 0.218489 2.11967 2.18322
Ar -0.0223434 0.901005 2.25543
Ar 2.4032 0.0606365 -0.909657
Ar -0.803934 -0.751678 2.81131
Ar 1.21845 1.24682 1.20036
Ar 3.40698 -1.21494 1.29991
15

Ar 1.20604 3.32137 1.51843
Ar 1.10711 -1.71721 0.0125103
Ar -1.31747 0.936352 -0.810218
Ar 0.164797 -1.94587 -0.550508
Ar -0.313316 1.25319 0.922922
Ar 0.454795 0.913141 3.36214
Ar 0.19839 0.205129 1.45536
Ar 3.33344 1.87993 0.536523
Ar -1.36784 0.305446 1.11325
Ar 0.218761 2.11419 2.2049
Ar -0.0431431 0.88021 2.29112
Ar 2.4209 0.0881265 -0.924887
Ar -0.802145 -0.751984 2.81563
Ar 1.20733 1.26271 1.18943
Ar 3.39413 -1.21849 1.29895
15

Ar 1.19616 3.31911 1.51011
Ar 1.11604 -1.72688 0.00593768
Ar -1.32317 0.942032 -0.836815
Ar 0.184159 -1.94404 -0.559057
Ar -0.315539 1.26601 0.932427
Ar 0.453041 0.904466 3.36876
Ar 0.198081 0.197517 1.46257
Ar 3.35757 1.89351 0.518652
Ar -1.37477 0.287625 1.12325
Ar 0.219169 2.10892 2.22644
Ar -0.0641707 0.859461 2.32697
Ar 2.43783 0.114151 -0.940236
Ar -0.800194 -0.752522 2.81995
Ar 1.19638 1.27863 1.1785
Ar 3.38118 -1.22174 1.29809
15

Ar 1.18644 3.31673 1.5018
Ar 1.12543 -1.73637 -0.000437452
Ar -1.32841 0.949773 -0.863147
Ar 0.203165 -1.94195 -0.567649
Ar -0.316678 1.27668 0.943287
Ar 0.451565 0.895407 3.37566
Ar 0.197872 0.189541 1.4695
Ar 3.38036 1.90918 0.499146
Ar -1.38181 0.269745 1.13321
Ar 0.219702 2.10385 2.2478
Ar -0.0854275 0.838738 2.36291
Ar 2.45393 0.138351 -0.955736
Ar -0.798101 -0.753293 2.82426
Ar 1.18561 1.29458 1.16759
Ar 3.36813 -1.22471 1.29734
15

Ar 1.17687 3.31425 1.49349
Ar 1.13532 -1.74568 -0.00660355
Ar -1.33314 0.959943 -0.889176
Ar 0.221814 -1.9396 -0.576263
Ar -0.316914 1.28534 0.955491
Ar 0.450393 0.885972 3.38289
Ar 0.197747 0.181254 1.47617
Ar 3.40199 1.92677 0.478032
Ar -1.38896 0.251819 1.14314
Ar 0.22035 2.09896 2.26891
Ar -0.106912 0.818021 2.39887
Ar 2.46913 0.160358 -0.971411
Ar -0.79588 -0.7543 2.82858
Ar 1.175 1.31055 1.15671
Ar 3.35497 -1.2274 1.29673
15

Ar 1.16746 3.31164 1.48519
Ar 1.14573 -1.7548 -0.01255
Ar -1.33736 0.972881 -0.914875
Ar 0.240105 -1.937 -0.58487
Ar -0.31645 1.29224 0.968947
Ar 0.449549 0.876175 3.39046
Ar 0.197694 0.172707 1.48259
Ar 3.42267 1.94601 0.455416
Ar -1.39622 0.233859 1.15301
Ar 0.2211 2.09424 2.28971
Ar -0.128617 0.79729 2.43475
Ar 2.48339 0.179833 -0.98727
Ar -0.793543 -0.75554 2.83291
Ar 1.16457 1.32652 1.14586
Ar 3.3417 -1.22982 1.29626
15

Ar 1.15822 3.30894 1.47688
Ar 1.15666 -1.76374 -0.0182673
Ar -1.34107 0.988847 -0.940244
Ar 0.258043 -1.93417 -0.593431
Ar -0.31548 1.29768 0.983512
Ar 0.449052 0.866033 3.39841
Ar 0.197698 0.163945 1.48881
Ar 3.44258 1.96663 0.431463
Ar -1.40358 0.215877 1.16281
Ar 0.221939 2.08968 2.31013
Ar -0.150533 0.776529 2.4705
Ar 2.49673 0.196516 -1.00331
Ar -0.791104 -0.757016 2.83727
Ar 1.15431 1.34248 1.13506
Ar 3.32831 -1.23199 1.29595
15

Ar 1.14915 3.30613 1.46857
Ar 1.16815 -1.77249 -0.0237475
Ar -1.34434 1.00798 -0.965301
Ar 0.27564 -1.93111 -0.601897
Ar -0.314173 1.30192 0.999013
Ar 0.44892 0.855562 3.40676
Ar 0.197745 0.155009 1.49484
Ar 3.46189 1.98835 0.406368
Ar -1.41103 0.197881 1.17255
Ar 0.222854 2.08527 2.33009
Ar -0.172643 0.755722 2.50605
Ar 2.50916 0.210274 -1.0195
Ar -0.788571 -0.758726 2.84166
Ar 1.14422 1.35841 1.1243
Ar 3.3148 -1.23392 1.29579
15

Ar 1.14026 3.3032 1.46025
Ar 1.18022 -1.78106 -0.0289843
Ar -1.34726 1.03026 -0.990076
Ar 0.292909 -1.92783 -0.610207
Ar -0.312664 1.30523 1.01527
Ar 0.449174 0.844782 3.41552
Ar 0.197821 0.145934 1.50071
Ar 3.48073 2.0109 0.380323
Ar -1.41857 0.179879 1.18222
Ar 0.223826 2.08099 2.34949
Ar -0.194924 0.73486 2.54133
Ar 2.52075 0.22112 -1.03581
Ar -0.785954 -0.760672 2.84609
Ar 1.1343 1.3743 1.11361
Ar 3.30116 -1.23565 1.2958
15

Ar 1.13155 3.30015 1.45192
Ar 1.19287 -1.78944 -0.0339732
Ar -1.34995 1.05554 -1.0146
Ar 0.309873 -1.92435 -0.618285
Ar -0.311058 1.30782 1.03213
Ar 0.449832 0.833713 3.42472
Ar 0.197913 0.136754 1.50644
Ar 3.49918 2.03409 0.35351
Ar -1.42619 0.16188 1.19182
Ar 0.224835 2.07683 2.36823
Ar -0.217345 0.713928 2.57631
Ar 2.53158 0.229213 -1.05218
Ar -0.783261 -0.762856 2.85056
Ar 1.12455 1.39015 1.10299
Ar 3.2874 -1.23718 1.29596
15

Ar 1.12302 3.29699 1.44358
Ar 1.20611 -1.79763 -0.0387117
Ar -1.35253 1.08356 -1.03892
Ar 0.326564 -1.92067 -0.626042
Ar -0.30943 1.30986 1.04945
Ar 0.450912 0.822376 3.43434
Ar 0.198006 0.127497 1.51204
Ar 3.51733 2.05776 0.326107
Ar -1.4339 0.143891 1.20134
Ar 0.225855 2.07277 2.38617
Ar -0.23987 0.692912 2.61096
Ar 2.54172 0.234821 -1.06857
Ar -0.780498 -0.765281 2.85508
Ar 1.11498 1.40595 1.09245
Ar 3.27351 -1.23855 1.29627
15

Ar 1.11469 3.29368 1.43523
Ar 1.21997 -1.80563 -0.0431994
Ar -1.35512 1.11399 -1.06307
Ar 0.34302 -1.91681 -0.633375
Ar -0.307835 1.31148 1.06711
Ar 0.452426 0.810792 3.4444
Ar 0.198088 0.11819 1.51755
Ar 3.5352 2.08177 0.298259
Ar -1.44169 0.125919 1.21078
Ar 0.226856 2.0688 2.40317
Ar -0.262454 0.671801 2.64524
Ar 2.55124 0.238281 -1.08494
Ar -0.777672 -0.767951 2.85966
Ar 1.10557 1.4217 1.082
Ar 3.25949 -1.23978 1.29673
15

Ar 1.10656 3.29025 1.42687
Ar 1.23444 -1.81345 -0.0474381
Ar -1.35782 1.14648 -1.08709
Ar 0.35929 -1.91276 -0.64017
Ar -0.306313 1.31279 1.08503
Ar 0.454384 0.79898 3.45489
Ar 0.198144 0.108858 1.52297
Ar 3.55282 2.10606 0.270091
Ar -1.44956 0.107973 1.22013
Ar 0.227805 2.06491 2.4191
Ar -0.285047 0.650588 2.67916
Ar 2.56017 0.239943 -1.10125
Ar -0.774786 -0.770871 2.86429
Ar 1.09634 1.43739 1.07165
Ar 3.24534 -1.24089 1.29731
15

Ar 1.09864 3.28666 1.41848
Ar 1.24954 -1.82109 -0.0514314
Ar -1.3607 1.18072 -1.11102
Ar 0.375432 -1.90853 -0.646304
Ar -0.30489 1.31387 1.10313
Ar 0.456793 0.786959 3.46578
Ar 0.198163 0.0995258 1.52832
Ar 3.57019 2.13054 0.241711
Ar -1.45751 0.0900638 1.2294
Ar 0.228657 2.06107 2.43381
Ar -0.307597 0.629272 2.71273
Ar 2.56855 0.24014 -1.11748
Ar -0.77184 -0.774049 2.86898
Ar 1.08728 1.45302 1.06141
Ar 3.23107 -1.24191 1.29802
15

Ar 1.09093 3.28292 1.41008
Ar 1.26525 -1.82856 -0.0551849
Ar -1.3638 1.2164 -1.13488
Ar 0.391514 -1.90412 -0.651653
Ar -0.303587 1.31478 1.12136
Ar 0.459653 0.774748 3.47707
Ar 0.198131 0.0902178 1.53362
Ar 3.5873 2.15516 0.213211
Ar -1.46554 0.0722019 1.23858
Ar 0.229367 2.05725 2.44714
Ar -0.330041 0.607861 2.74595
Ar 2.57634 0.239164 -1.13361
Ar -0.76884 -0.777492 2.87373
Ar 1.07839 1.46857 1.05129
Ar 3.21669 -1.24285 1.29884
15

Ar 1.08343 3.27903 1.40166
Ar 1.2816 -1.83586 -0.0587055
Ar -1.36715 1.25326 -1.15871
Ar 0.407613 -1.89953 -0.656097
Ar -0.302416 1.31556 1.13968
Ar 0.462962 0.762363 3.48873
Ar 0.198037 0.0809552 1.53887
Ar 3.60416 2.17991 0.184676
Ar -1.47364 0.0543955 1.24767
Ar 0.22988 2.05344 2.45896
Ar -0.352316 0.586374 2.77885
Ar 2.58353 0.237257 -1.14964
Ar -0.765788 -0.7812 2.87855
Ar 1.06967 1.48404 1.0413
Ar 3.2022 -1.24375 1.29975
15

Ar 1.07616 3.27496 1.3932
Ar 1.29857 -1.84299 -0.0620017
Ar -1.37076 1.29109 -1.18251
Ar 0.42381 -1.89475 -0.659532
Ar -0.301388 1.31625 1.15806
Ar 0.46671 0.749819 3.50075
Ar 0.19787 0.0717558 1.5441
Ar 3.62073 2.20475 0.156177
Ar -1.48182 0.0366529 1.25666
Ar 0.230142 2.0496 2.46912
Ar -0.374346 0.564842 2.81149
Ar 2.59005 0.234613 -1.16558
Ar -0.762691 -0.785166 2.88343
Ar 1.06111 1.49943 1.03146
Ar 3.18761 -1.24461 1.30073
15

Ar 1.06912 3.27073 1.38472
Ar 1.31619 -1.84996 -0.0650825
Ar -1.37461 1.32971 -1.20631
Ar 0.440189 -1.88978 -0.661882
Ar -0.300507 1.31685 1.17646
Ar 0.470887 0.73713 3.51308
Ar 0.197617 0.0626355 1.5493
Ar 3.637 2.22969 0.127784
Ar -1.49007 0.0189833 1.26555
Ar 0.230097 2.04571 2.47755
Ar -0.396048 0.543307 2.8439
Ar 2.59583 0.23138 -1.18143
Ar -0.75955 -0.7894 2.88838
Ar 1.05271 1.51473 1.02176
Ar 3.17293 -1.24547 1.30178
15

Ar 1.06231 3.26632 1.37619
Ar 1.33444 -1.85679 -0.0679574
Ar -1.3787 1.36896 -1.23013
Ar 0.456836 -1.8846 -0.663103
Ar -0.299779 1.3174 1.19487
Ar 0.475479 0.72431 3.52571
Ar 0.19727 0.0536085 1.5545
Ar 3.65294 2.25471 0.0995562
Ar -1.49841 0.00139472 1.27434
Ar 0.229694 2.04173 2.48416
Ar -0.41733 0.521821 2.87614
Ar 2.60078 0.227674 -1.19723
Ar -0.756372 -0.793909 2.89339
Ar 1.04446 1.52994 1.01223
Ar 3.15815 -1.24633 1.30288
15

Ar 1.05574 3.26173 1.36763
Ar 1.35335 -1.86346 -0.070636
Ar -1.383 1.40872 -1.25396
Ar 0.473826 -1.87922 -0.663195
Ar -0.299205 1.31791 1.21327
Ar 0.480467 0.711369 3.53861
Ar 0.196819 0.0446883 1.5597
Ar 3.66851 2.27983 0.0715525
Ar -1.50683 -0.0161044 1.28302
Ar 0.228891 2.03763 2.48894
Ar -0.43809 0.500443 2.90829
Ar 2.60478 0.223577 -1.213
Ar -0.753162 -0.7987 2.89846
Ar 1.03637 1.54506 1.00286
Ar 3.14331 -1.24722 1.30401
15

Ar 1.04941 3.25695 1.35901
Ar 1.37291 -1.87 -0.0731273
Ar -1.38748 1.4489 -1.27781
Ar 0.491227 -1.87363 -0.662202
Ar -0.298786 1.31837 1.23165
Ar 0.485835 0.698317 3.55176
Ar 0.196253 0.0358866 1.56491
Ar 3.68369 2.30503 0.0438258
Ar -1.51533 -0.0335052 1.2916
Ar 0.227656 2.0334 2.49191
Ar -0.458225 0.479231 2.94041
Ar 2.60774 0.21915 -1.22882
Ar -0.749924 -0.803778 2.90359
Ar 1.02841 1.56008 0.993674
Ar 3.12839 -1.24815 1.30517
15

Ar 1.04332 3.25199 1.35034
Ar 1.39314 -1.87642 -0.0754403
Ar -1.39213 1.4894 -1.30168
Ar 0.509096 -1.86785 -0.660205
Ar -0.298522 1.3188 1.25
Ar 0.49156 0.685162 3.56512
Ar 0.195567 0.0272154 1.57014
Ar 3.69843 2.33034 0.0164252
Ar -1.52391 -0.0507984 1.30006
Ar 0.225973 2.02901 2.49313
Ar -0.477635 0.458243 2.97261
Ar 2.60955 0.214441 -1.24473
Ar -0.746667 -0.809146 2.90876
Ar 1.02058 1.57499 0.984672
Ar 3.11341 -1.24914 1.30634
15

Ar 1.03748 3.24683 1.34161
Ar 1.41404 -1.88271 -0.0775827
Ar -1.39693 1.53015 -1.32557
Ar 0.52747 -1.86187 -0.657322
Ar -0.298412 1.31919 1.26832
Ar 0.497622 0.671912 3.57867
Ar 0.194752 0.0186952 1.5754
Ar 3.71271 2.35577 -0.010604
Ar -1.53258 -0.0679742 1.3084
Ar 0.223842 2.02444 2.49271
Ar -0.496239 0.437527 3.00497
Ar 2.61015 0.209487 -1.26082
Ar -0.743396 -0.814808 2.91398
Ar 1.01287 1.5898 0.975862
Ar 3.09838 -1.25019 1.30751
15

Ar 1.03189 3.24148 1.33283
Ar 1.43562 -1.88889 -0.0795615
Ar -1.40187 1.5711 -1.34948
Ar 0.546378 -1.85574 -0.653697
Ar -0.298455 1.31955 1.28659
Ar 0.504003 0.658574 3.59239
Ar 0.193802 0.0103365 1.58071
Ar 3.7265 2.38132 -0.0372213
Ar -1.54133 -0.0850227 1.31662
Ar 0.221275 2.01968 2.49078
Ar -0.513983 0.417121 3.0376
Ar 2.60948 0.204326 -1.27715
Ar -0.740122 -0.82076 2.91922
Ar 1.00527 1.60451 0.967251
Ar 3.08332 -1.25134 1.30867
15

Ar 1.02654 3.23594 1.32399
Ar 1.45789 -1.89498 -0.0813825
Ar -1.40693 1.6122 -1.3734
Ar 0.565831 -1.84945 -0.649485
Ar -0.298648 1.31987 1.3048
Ar 0.510683 0.645155 3.60624
Ar 0.192714 0.00214597 1.58608
Ar 3.73975 2.407 -0.0633908
Ar -1.55018 -0.101933 1.32471
Ar 0.218297 2.01472 2.48749
Ar -0.530848 0.397049 3.07057
Ar 2.60754 0.198996 -1.29379
Ar -0.736853 -0.827 2.92448
Ar 0.997772 1.61911 0.958844
Ar 3.06822 -1.25257 1.3098
15

Ar 1.02144 3.2302 1.31508
Ar 1.48085 -1.90098 -0.0830505
Ar -1.41211 1.6534 -1.39733
Ar 0.585829 -1.84305 -0.644835
Ar -0.298989 1.32015 1.32295
Ar 0.517647 0.631662 3.6202
Ar 0.191482 -0.00587098 1.59152
Ar 3.75245 2.43282 -0.0890818
Ar -1.55913 -0.118695 1.33267
Ar 0.214943 2.00958 2.48299
Ar -0.546852 0.377334 3.10397
Ar 2.60435 0.193538 -1.31081
Ar -0.733602 -0.833518 2.92973
Ar 0.990364 1.6336 0.950642
Ar 3.0531 -1.25392 1.31091
15

Ar 1.01658 3.22427 1.3061
Ar 1.50451 -1.90691 -0.084569
Ar -1.41741 1.69466 -1.42127
Ar 0.606353 -1.83657 -0.639889
Ar -0.299476 1.32039 1.34103
Ar 0.524878 0.6181 3.63427
Ar 0.190104 -0.0137102 1.59704
Ar 3.76458 2.45878 -0.114267
Ar -1.56818 -0.135296 1.34049
Ar 0.211255 2.00427 2.47743
Ar -0.562051 0.357982 3.13785
Ar 2.59999 0.187996 -1.32822
Ar -0.730383 -0.840302 2.93495
Ar 0.983034 1.64799 0.942646
Ar 3.03798 -1.2554 1.31197
15

Ar 1.01196 3.21816 1.29706
Ar 1.52888 -1.91279 -0.0859405
Ar -1.4228 1.73597 -1.4452
Ar 0.627372 -1.83003 -0.634772
Ar -0.300107 1.32058 1.35902
Ar 0.532361 0.604474 3.64842
Ar 0.188579 -0.0213689 1.60263
Ar 3.77615 2.48487 -0.138926
Ar -1.57734 -0.151727 1.34816
Ar 0.207276 1.99878 2.47096
Ar -0.576528 0.338987 3.17224
Ar 2.59456 0.182413 -1.34605
Ar -0.727211 -0.847334 2.9401
Ar 0.975771 1.66227 0.934854
Ar 3.02286 -1.25701 1.31298
15

Ar 1.00757 3.21186 1.28794
Ar 1.55395 -1.91862 -0.0871665
Ar -1.4283 1.7773 -1.46913
Ar 0.648857 -1.82346 -0.62959
Ar -0.30088 1.3207 1.37693
Ar 0.540083 0.59079 3.66265
Ar 0.186906 -0.0288454 1.60832
Ar 3.78715 2.5111 -0.163037
Ar -1.58662 -0.167974 1.35567
Ar 0.203054 1.99314 2.46372
Ar -0.590388 0.320338 3.20717
Ar 2.58816 0.176831 -1.36427
Ar -0.724108 -0.85459 2.94516
Ar 0.968565 1.67645 0.927265
Ar 3.00776 -1.25878 1.31393
15

Ar 1.00341 3.20538 1.27874
Ar 1.57972 -1.92442 -0.0882477
Ar -1.43391 1.81862 -1.49305
Ar 0.67077 -1.81688 -0.624425
Ar -0.301793 1.32077 1.39473
Ar 0.548029 0.577052 3.67694
Ar 0.185086 -0.0361394 1.61409
Ar 3.79762 2.53745 -0.186582
Ar -1.59602 -0.184026 1.36301
Ar 0.198632 1.98737 2.45583
Ar -0.60374 0.302024 3.24261
Ar 2.58094 0.171287 -1.38285
Ar -0.721096 -0.86204 2.95008
Ar 0.961406 1.69052 0.919875
Ar 2.99271 -1.2607 1.3148
15

Ar 0.99944 3.19874 1.26946
Ar 1.6062 -1.93022 -0.0891842
Ar -1.43962 1.8599 -1.51695
Ar 0.69307 -1.81032 -0.619343
Ar -0.302846 1.32075 1.41241
Ar 0.556187 0.563265 3.69127
Ar 0.183121 -0.0432516 1.61996
Ar 3.8076 2.5639 -0.209541
Ar -1.60555 -0.199865 1.37018
Ar 0.194057 1.98147 2.4474
Ar -0.616693 0.284033 3.27854
Ar 2.57301 0.165817 -1.40173
Ar -0.718206 -0.869649 2.95481
Ar 0.954286 1.70449 0.912677
Ar 2.97772 -1.26281 1.31558
15

Ar 0.995664 3.19193 1.2601
Ar 1.63337 -1.93601 -0.0899757
Ar -1.44546 1.90113 -1.54083
Ar 0.71571 -1.80379 -0.614396
Ar -0.304041 1.32065 1.42996
Ar 0.564546 0.549442 3.70565
Ar 0.181013 -0.0501839 1.62593
Ar 3.81713 2.59041 -0.23189
Ar -1.61523 -0.215476 1.37716
Ar 0.189368 1.97546 2.43855
Ar -0.629346 0.266354 3.31493
Ar 2.56449 0.160448 -1.42086
Ar -0.715475 -0.877375 2.9593
Ar 0.947195 1.71836 0.905663
Ar 2.96283 -1.2651 1.31626
15

Ar 0.99207 3.18497 1.25066
Ar 1.66124 -1.94182 -0.0906217
Ar -1.45142 1.94229 -1.56468
Ar 0.738641 -1.79729 -0.609623
Ar -0.305378 1.32045 1.44736
Ar 0.573086 0.535594 3.72005
Ar 0.178768 -0.0569389 1.632
Ar 3.82631 2.61694 -0.253597
Ar -1.62506 -0.230846 1.38393
Ar 0.184607 1.96937 2.42936
Ar -0.641788 0.248979 3.35174
Ar 2.55548 0.155204 -1.44015
Ar -0.712948 -0.885169 2.96348
Ar 0.940128 1.73212 0.898825
Ar 2.94804 -1.2676 1.31682
15

Ar 0.988651 3.17787 1.24114
Ar 1.68978 -1.94767 -0.0911219
Ar -1.45751 1.98335 -1.58848
Ar 0.761814 -1.79084 -0.605049
Ar -0.306862 1.32013 1.4646
Ar 0.581794 0.521728 3.73447
Ar 0.176389 -0.0635186 1.63817
Ar 3.83521 2.64345 -0.27462
Ar -1.63506 -0.245964 1.39048
Ar 0.179809 1.9632 2.41991
Ar -0.654092 0.2319 3.38894
Ar 2.54608 0.150105 -1.45955
Ar -0.710679 -0.892977 2.96728
Ar 0.933078 1.74578 0.892152
Ar 2.93337 -1.2703 1.31724
15

Ar 0.985395 3.17064 1.23154
Ar 1.71898 -1.95356 -0.091476
Ar -1.46375 2.02429 -1.61222
Ar 0.785179 -1.78442 -0.600691
Ar -0.308496 1.31968 1.48165
Ar 0.590661 0.507844 3.74891
Ar 0.173881 -0.0699255 1.64444
Ar 3.84396 2.66987 -0.294908
Ar -1.64523 -0.260819 1.39679
Ar 0.175011 1.95699 2.41028
Ar -0.666319 0.215113 3.42647
Ar 2.53635 0.145169 -1.47898
Ar -0.708737 -0.900741 2.97061
Ar 0.926035 1.75933 0.885633
Ar 2.91885 -1.27322 1.3175
15

Ar 0.982293 3.1633 1.22186
Ar 1.74881 -1.95951 -0.0916847
Ar -1.47014 2.06509 -1.63589
Ar 0.808693 -1.77804 -0.596559
Ar -0.310286 1.31908 1.49851
Ar 0.599678 0.493949 3.76336
Ar 0.171252 -0.0761646 1.65083
Ar 3.85267 2.69616 -0.314397
Ar -1.6556 -0.275396 1.40285
Ar 0.170246 1.95075 2.40054
Ar -0.678517 0.198616 3.46431
Ar 2.52637 0.140412 -1.49838
Ar -0.7072 -0.908401 2.97337
Ar 0.918988 1.77277 0.879258
Ar 2.90452 -1.27638 1.31757
15

Ar 0.979334 3.15585 1.2121
Ar 1.77927 -1.96553 -0.0917493
Ar -1.47672 2.10573 -1.65945
Ar 0.832312 -1.7717 -0.592657
Ar -0.312242 1.31832 1.51514
Ar 0.608836 0.480045 3.7778
Ar 0.168507 -0.0822415 1.65732
Ar 3.86148 2.72225 -0.333011
Ar -1.66617 -0.289688 1.40863
Ar 0.165547 1.94451 2.39077
Ar -0.690726 0.182407 3.50242
Ar 2.51618 0.135851 -1.51767
Ar -0.706162 -0.915895 2.97548
Ar 0.911934 1.78609 0.873013
Ar 2.89039 -1.27976 1.31742
15

Ar 0.976505 3.14832 1.20226
Ar 1.81032 -1.97163 -0.0916719
Ar -1.48348 2.14619 -1.68287
Ar 0.855999 -1.76539 -0.588987
Ar -0.314377 1.31736 1.53151
Ar 0.618129 0.466135 3.79224
Ar 0.165655 -0.088162 1.66391
Ar 3.87055 2.7481 -0.350669
Ar -1.67697 -0.303686 1.41411
Ar 0.160945 1.93829 2.38101
Ar -0.702976 0.166481 3.54078
Ar 2.50583 0.131504 -1.53681
Ar -0.705727 -0.92317 2.97683
Ar 0.904869 1.79929 0.866887
Ar 2.87649 -1.28338 1.317
15

Ar 0.973797 3.14072 1.19235
Ar 1.84195 -1.97782 -0.0914554
Ar -1.49047 2.1864 -1.70611
Ar 0.879724 -1.7591 -0.585548
Ar -0.316706 1.31618 1.54762
Ar 0.627549 0.452224 3.80667
Ar 0.162703 -0.0939324 1.6706
Ar 3.88004 2.77365 -0.367278
Ar -1.688 -0.317387 1.41927
Ar 0.156474 1.93212 2.37134
Ar -0.71529 0.150833 3.57937
Ar 2.49535 0.127409 -1.55572
Ar -0.706007 -0.930177 2.97731
Ar 0.897792 1.81236 0.860868
Ar 2.86286 -1.28724 1.31626
15

Ar 0.971198 3.13307 1.18237
Ar 1.87411 -1.98411 -0.0911038
Ar -1.49769 2.22632 -1.72911
Ar 0.903458 -1.75282 -0.582336
Ar -0.319249 1.31475 1.56343
Ar 0.637089 0.438316 3.82108
Ar 0.159658 -0.0995587 1.67738
Ar 3.89011 2.79888 -0.38276
Ar -1.69929 -0.330785 1.42406
Ar 0.152164 1.92604 2.36181
Ar -0.727688 0.135463 3.61816
Ar 2.48477 0.123594 -1.57435
Ar -0.707117 -0.936884 2.97683
Ar 0.8907 1.82529 0.854943
Ar 2.84954 -1.29132 1.31513
15

Ar 0.968695 3.12538 1.17233
Ar 1.90679 -1.9905 -0.0906219
Ar -1.5052 2.26593 -1.7518
Ar 0.92718 -1.74655 -0.579349
Ar -0.322027 1.31304 1.57891
Ar 0.646742 0.424415 3.83547
Ar 0.15653 -0.105047 1.68426
Ar 3.90091 2.82376 -0.397055
Ar -1.71085 -0.34388 1.42847
Ar 0.148051 1.92008 2.35249
Ar -0.740184 0.120364 3.65714
Ar 2.47412 0.120081 -1.59264
Ar -0.709162 -0.943274 2.97533
Ar 0.883592 1.83807 0.8491
Ar 2.83657 -1.29562 1.31353
15

Ar 0.966279 3.11769 1.16222
Ar 1.93995 -1.997 -0.0900153
Ar -1.51301 2.30517 -1.7741
Ar 0.950875 -1.74029 -0.576582
Ar -0.325066 1.31102 1.59402
Ar 0.656503 0.410525 3.84985
Ar 0.153325 -0.110405 1.69122
Ar 3.91258 2.8483 -0.410124
Ar -1.72271 -0.35667 1.43245
Ar 0.144168 1.91427 2.34343
Ar -0.752789 0.105527 3.6963
Ar 2.46343 0.116896 -1.61055
Ar -0.712231 -0.94935 2.97275
Ar 0.876467 1.85068 0.843328
Ar 2.82401 -1.30013 1.31137
15

Ar 0.963937 3.11 1.15206
Ar 1.97355 1.99639 -0.0892902
Ar -1.52118 2.344 -1.79588
Ar 0.974533 -1.73402 -0.574032
Ar -0.328396 1.30865 1.60872
Ar 0.666365 0.396652 3.8642
Ar 0.150053 -0.115637 1.69828
Ar 3.92521 2.87253 -0.421959
Ar -1.73487 -0.369156 1.43597
Ar 0.140553 1.90867 2.33468
Ar -0.765512 0.0909432 3.73561
Ar 2.45271 0.114067 -1.62803
Ar -0.716384 -0.955133 2.96908
Ar 0.869321 1.86312 0.837616
Ar 2.81189 -1.30483 1.30852
15

Ar 0.961658 3.10234 1.14185
Ar 2.00756 1.98966 -0.0884537
Ar -1.52977 2.38238 -1.81702
Ar 0.998147 -1.72775 -0.571692
Ar -0.332048 1.30588 1.62297
Ar 0.676324 0.3828 3.87852
Ar 0.146721 -0.120751 1.70543
Ar 3.93887 2.89647 -0.43259
Ar -1.74737 -0.381339 1.43901
Ar 0.137242 1.90332 2.32631
Ar -0.77836 0.0766031 3.77507
Ar 2.44198 0.111624 -1.64502
Ar -0.721646 -0.96066 2.96436
Ar 0.862154 1.87537 0.831952
Ar 2.8003 -1.3097 1.30485
15

Ar 0.959434 3.09474 1.1316
Ar 2.04195 1.98281 -0.0875132
Ar -1.53882 2.42026 -1.83735
Ar 1.02171 -1.72146 -0.569557
Ar -0.336057 1.30268 1.63673
Ar 0.686376 0.368975 3.89281
Ar 0.14334 -0.125749 1.71268
Ar 3.95358 2.92018 -0.442083
Ar -1.76021 -0.393221 1.44152
Ar 0.134276 1.89826 2.31837
Ar -0.791338 0.062495 3.81466
Ar 2.43126 0.1096 -1.66148
Ar -0.728002 -0.965977 2.95864
Ar 0.854961 1.8874 0.826325
Ar 2.78931 -1.31475 1.30019
15

Ar 0.957252 3.08723 1.12132
Ar 2.0767 1.97585 -0.0864767
Ar -1.54842 2.4576 -1.85671
Ar 1.04524 -1.71517 -0.567623
Ar -0.340459 1.299 1.64996
Ar 0.696515 0.355185 3.90707
Ar 0.139916 -0.13063 1.72003
Ar 3.96931 2.94372 -0.450532
Ar -1.77343 -0.404802 1.44346
Ar 0.131694 1.89354 2.31091
Ar -0.804448 0.0486062 3.85438
Ar 2.42057 0.108027 -1.67738
Ar -0.7354 -0.971133 2.95203
Ar 0.847741 1.89918 0.820725
Ar 2.779 -1.31995 1.29438
15

Ar 0.955105 3.07981 1.11101
Ar 2.11178 1.96876 -0.0853523
Ar -1.55863 2.49438 -1.8749
Ar 1.06871 -1.70886 -0.565883
Ar -0.34529 1.2948 1.66264
Ar 0.70674 0.341436 3.9213
Ar 0.136459 -0.135401 1.72745
Ar 3.986 2.96713 -0.458049
Ar -1.78704 -0.416081 1.44481
Ar 0.129536 1.88921 2.30397
Ar -0.817691 0.034923 3.89421
Ar 2.40992 0.106941 -1.69267
Ar -0.743759 -0.976177 2.94464
Ar 0.840489 1.91069 0.81514
Ar 2.76944 -1.32532 1.28722
15

Ar 0.952983 3.07254 1.10068
Ar 2.14716 1.96155 -0.0841487
Ar -1.56952 2.53058 -1.89174
Ar 1.09215 -1.70255 -0.564331
Ar -0.350588 1.29003 1.67473
Ar 0.717047 0.327735 3.9355
Ar 0.132975 -0.140066 1.73497
Ar 0.0035646 2.99047 -0.464759
Ar -1.80106 -0.427051 1.44553
Ar 0.127841 1.88533 2.2976
Ar -0.831067 0.0214309 3.93415
Ar 2.39932 0.106375 -1.70733
Ar -0.752975 -0.98115 2.93658
Ar 0.833201 1.92192 0.80956
Ar 2.76073 -1.33089 1.27856
15

Ar 0.950878 3.06542 1.09034
Ar 2.18282 1.95422 -0.0828746
Ar -1.58114 2.5662 -1.90708
Ar 1.11555 -1.69623 -0.562962
Ar -0.356385 1.28467 1.68621
Ar 0.727435 0.314091 3.94967
Ar 0.129474 -0.144632 1.74256
Ar 0.0219153 3.01377 -0.470786
Ar -1.81552 -0.437702 1.44557
Ar 0.126649 1.88192 2.29183
Ar -0.844572 0.00811491 3.97419
Ar 2.3888 0.106362 -1.72133
Ar -0.762935 -0.986084 2.928
Ar 0.825871 1.93281 0.803974
Ar 2.75294 -1.33669 1.26823
15

Ar 0.948783 3.05851 1.08001
Ar 2.21872 1.94676 -0.0815386
Ar -1.59355 2.60125 -1.9208
Ar 1.13893 -1.6899 -0.56177
Ar -0.362712 1.27867 1.69706
Ar 0.737901 0.300515 3.96381
Ar 0.125963 -0.149105 1.75023
Ar 0.040945 3.03705 -0.476246
Ar -1.83042 -0.448016 1.44491
Ar 0.125992 1.87904 2.28668
Ar -0.858203 -0.00504 0.0143083
Ar 2.37835 0.106933 -1.73465
Ar -0.773519 -0.991003 2.91901
Ar 0.818493 1.94336 0.798369
Ar 2.74611 -1.34278 1.25616
15

Ar 0.94669 3.05182 1.0697
Ar 2.25484 1.93918 -0.0801497
Ar -1.60675 2.63575 -1.93282
Ar 1.16228 -1.68358 -0.560748
Ar -0.369594 1.27202 1.70729
Ar 0.748447 0.287033 3.97792
Ar 0.122449 -0.153488 1.75797
Ar 0.060551 3.06035 -0.481249
Ar -1.8458 -0.457965 1.44351
Ar 0.125895 1.87671 2.28216
Ar -0.87195 -0.0180482 0.054502
Ar 2.36799 0.108116 -1.74729
Ar -0.784613 -0.995923 2.90973
Ar 0.811059 1.95352 0.792734
Ar 2.74028 -1.34924 1.2423
15

Ar 0.944592 3.04539 1.0594
Ar 2.29117 1.93148 -0.0787172
Ar -1.62073 2.6697 -1.94313
Ar 1.18561 -1.67728 -0.559891
Ar -0.377048 1.2647 1.71688
Ar 0.759069 0.273658 3.992
Ar 0.118939 -0.157788 1.76578
Ar 0.0806359 3.08367 -0.485889
Ar -1.86167 -0.46751 1.44132
Ar 0.126378 1.87494 2.27828
Ar -0.885803 -0.030923 0.0947543
Ar 2.35773 0.109935 -1.75924
Ar -0.796112 -1.00085 2.90025
Ar 0.803563 1.96326 0.787058
Ar 2.73544 -1.35613 1.22669
15

Ar 0.942485 3.03926 1.04914
Ar 2.32768 1.92365 -0.0772509
Ar -1.63543 2.7031 -1.95178
Ar 1.20893 -1.671 -0.559194
Ar -0.385083 1.2567 1.72587
Ar 0.769769 0.260402 0.00605512
Ar 0.11544 -0.162009 1.77367
Ar 0.10111 3.10702 -0.490248
Ar -1.87806 -0.4766 1.4383
Ar 0.127449 1.87376 2.27502
Ar -0.899754 -0.0436748 0.135047
Ar 2.34758 0.112411 -1.77051
Ar -0.807915 -1.0058 2.89066
Ar 0.795994 1.97253 0.781328
Ar 2.73157 -1.36351 1.20944
15

Ar 0.940363 3.03346 1.03893
Ar 2.36436 1.9157 -0.0757608
Ar -1.65077 2.7359 -1.95883
Ar 1.23223 -1.66474 -0.558655
Ar -0.3937 1.24804 1.73426
Ar 0.780549 0.247278 0.0200902
Ar 0.111955 -0.166157 1.78161
Ar 0.121893 3.13039 -0.494398
Ar -1.89497 -0.485169 1.43438
Ar 0.12911 1.87316 2.27238
Ar -0.913791 -0.0563103 0.175366
Ar 2.33753 0.115559 -1.7811
Ar -0.819926 -1.01076 2.88105
Ar 0.788342 1.98131 0.775532
Ar 2.72861 -1.37141 1.19069
15

Ar 0.938221 3.02802 1.02878
Ar 2.40118 1.90762 -0.0742576
Ar -1.66667 2.76804 -1.96437
Ar 1.25551 -1.65851 -0.558269
Ar -0.402891 1.23873 1.7421
Ar 0.791411 0.234303 0.0341085
Ar 0.108471 -0.170235 1.78962
Ar 0.142911 3.15379 -0.498397
Ar -1.91243 -0.493138 1.42951
Ar 0.131352 1.87313 2.27032
Ar -0.927903 -0.0688366 0.215693
Ar 2.32759 0.119392 -1.79104
Ar -0.832068 -1.01575 2.87146
Ar 0.780597 1.98956 0.769657
Ar 2.72647 -1.37986 1.17064
15

Ar 0.936055 3.02298 1.0187
Ar 2.43814 1.8994 -0.072753
Ar -1.68299 2.79942 -1.96848
Ar 1.27878 -1.65231 -0.558028
Ar -0.41264 1.22879 1.74941
Ar 0.80236 0.22149 0.0481146
Ar 0.104993 -0.174248 1.79768
Ar 0.164101 3.1772 -0.502298
Ar -1.93044 -0.500416 1.42359
Ar 0.13416 1.87365 2.2688
Ar -0.942076 -0.0812582 0.256003
Ar 2.31777 0.123916 -1.80033
Ar -0.844277 -1.02074 2.86195
Ar 0.772748 1.99722 0.76369
Ar 2.72508 -1.38885 1.14948
15

Ar 0.933859 3.01836 1.0087
Ar 2.47522 1.89106 -0.0712593
Ar -1.69962 2.82992 -1.97119
Ar 1.30205 -1.64614 -0.557928
Ar -0.422924 1.21827 1.75625
Ar 0.8134 0.20886 0.0621137
Ar 0.101524 -0.1782 1.80581
Ar 0.185408 3.20062 -0.506145
Ar -1.94905 -0.506907 1.41652
Ar 0.137514 1.87469 2.2678
Ar -0.956298 -0.0935769 0.29627
Ar 2.30806 0.129137 -1.809
Ar -0.856496 -1.02576 2.85257
Ar 0.764782 2.00426 0.757619
Ar 2.72435 -1.39835 1.12741
15

Ar 0.931628 3.01421 0.998789
Ar 2.5124 1.88257 -0.0697899
Ar -1.71645 2.85943 -1.97253
Ar 1.32532 -1.64 -0.557961
Ar -0.433715 1.2072 1.76266
Ar 0.824537 0.196429 0.0761133
Ar 0.0980715 -0.182096 1.81398
Ar 0.206782 3.22402 -0.509977
Ar -1.96828 -0.512514 1.40822
Ar 0.141385 1.87622 2.26726
Ar -0.970552 -0.105792 0.336476
Ar 2.29845 0.135054 -1.81707
Ar -0.868679 -1.03079 2.84335
Ar 0.756687 2.01064 0.751431
Ar 2.72419 -1.40834 1.10459
15

Ar 0.929357 3.01054 0.988979
Ar 2.54968 1.87393 -0.0683594
Ar -1.73336 2.88782 -1.97249
Ar 1.34859 -1.63391 -0.558121
Ar -0.444981 1.19563 1.76868
Ar 0.835778 0.18422 0.0901221
Ar 0.0946398 -0.185939 1.82221
Ar 0.228182 3.24741 -0.513829
Ar -1.98816 -0.517153 1.39855
Ar 0.145742 1.8782 2.26715
Ar -0.984822 -0.117901 0.376601
Ar 2.28895 0.141665 -1.82459
Ar -0.880785 -1.03583 2.83432
Ar 0.74845 2.01633 0.745115
Ar 2.72452 -1.41876 1.0812
15

Ar 0.927037 3.00738 0.979277
Ar 2.58705 1.86514 -0.0669839
Ar -1.75025 2.91499 -1.97105
Ar 1.37186 -1.62786 -0.558401
Ar -0.456684 1.18361 1.77436
Ar 0.847131 0.172253 0.10415
Ar 0.0912337 -0.189734 1.83049
Ar 0.249569 3.27075 -0.517732
Ar 1.99128 -0.520759 1.38744
Ar 0.150553 1.88059 2.26742
Ar -0.999093 -0.129896 0.416627
Ar 2.27954 0.148966 -1.83157
Ar -0.892779 -1.04089 2.82549
Ar 0.740058 2.02128 0.738659
Ar 2.72527 -1.42957 1.05737
15

Ar 0.924661 3.00474 0.969689
Ar 2.6245 1.85619 -0.0656806
Ar -1.76704 2.94089 -1.96819
Ar 1.39515 -1.62186 -0.558795
Ar -0.46879 1.17119 1.77974
Ar 0.858603 0.160553 0.118209
Ar 0.0878579 -0.193483 1.83881
Ar 0.270907 3.29403 -0.521718
Ar 1.97003 -0.523301 1.3748
Ar 0.155782 1.88334 2.26803
Ar -1.01335 -0.141768 0.456536
Ar 2.27022 0.15695 -1.83805
Ar -0.904632 -1.04598 2.81689
Ar 0.731499 2.02548 0.732052
Ar 2.72638 -1.44072 1.03323
15

Ar 0.922215 3.00263 0.960221
Ar 2.66202 1.84707 -0.0644685
Ar -1.78367 2.9655 -1.96391
Ar 1.41843 -1.61591 -0.559296
Ar -0.48126 1.15841 1.78486
Ar 0.870205 0.149143 0.132311
Ar 0.0845167 -0.197191 1.84719
Ar 0.29216 3.31723 -0.525815
Ar 1.94809 -0.524784 1.36059
Ar 0.161395 1.88642 2.26895
Ar -1.02756 -0.153504 0.496308
Ar 2.26098 0.16561 -1.84408
Ar -0.916317 -1.05108 2.80853
Ar 0.722763 2.02888 0.725287
Ar 2.7278 -1.45218 1.00887
15

Ar 0.919683 3.00105 0.950873
Ar 2.69962 1.83774 -0.0633678
Ar -1.80011 2.98884 -1.95823
Ar 1.44173 -1.61001 -0.559897
Ar -0.494059 1.14534 1.78976
Ar 0.881945 0.138048 0.146469
Ar 0.0812142 -0.200862 1.8556
Ar 0.313298 3.34035 -0.530052
Ar 1.92551 -0.525249 1.34484
Ar 0.167357 1.88978 2.27014
Ar -1.04172 -0.165078 0.535924
Ar 2.25182 0.174938 -1.84967
Ar -0.927811 -1.05621 2.80042
Ar 0.713856 2.03148 0.718354
Ar 2.72945 -1.46389 0.984387
15

Ar 0.917047 2.99998 0.941648
Ar 2.73728 1.8282 -0.0624004
Ar -1.81637 3.01097 -1.95121
Ar 1.46504 -1.60417 -0.560591
Ar -0.507152 1.132 1.79446
Ar 0.893832 0.127293 0.160694
Ar 0.0779544 -0.204497 1.86406
Ar 0.334296 3.36335 -0.534456
Ar 1.90231 -0.524768 1.3276
Ar 0.173637 1.89338 2.27157
Ar -1.0558 -0.176471 0.575369
Ar 2.24273 0.184923 -1.85487
Ar -0.939094 -1.06137 2.79256
Ar 0.704776 2.03325 0.711249
Ar 2.73129 -1.47582 0.959858
15

Ar 0.91428 2.99942 0.932541
Ar 2.77499 1.81842 -0.0615899
Ar -1.83246 3.03198 -1.94294
Ar 1.48835 -1.59839 -0.561371
Ar -0.520506 1.11845 1.79901
Ar 0.905874 0.116903 0.174995
Ar 0.074741 -0.208102 1.87256
Ar 0.355133 3.38624 -0.539055
Ar 1.87858 -0.523432 1.30898
Ar 0.180203 1.89719 2.27321
Ar -1.06977 -0.187666 0.614625
Ar 2.23369 0.195555 -1.85969
Ar -0.950146 -1.06657 2.78497
Ar 0.695526 2.03419 0.703966
Ar 2.7333 -1.48794 0.935348
15

Ar 0.91135 2.99932 0.923549
Ar 2.81276 1.8084 -0.0609611
Ar -1.84842 3.05198 -1.93356
Ar 1.51166 -1.59268 -0.56223
Ar -0.534089 1.10471 1.80341
Ar 0.918078 0.106905 0.189384
Ar 0.0715777 -0.211679 1.88109
Ar 0.375789 3.40899 -0.543877
Ar 1.85438 -0.521341 1.28913
Ar 0.18702 1.90118 2.27503
Ar -1.08361 -0.198651 0.65368
Ar 2.2247 0.206825 -1.86417
Ar -0.960951 -1.07181 2.77765
Ar 0.686103 2.0343 0.696504
Ar 2.73542 -1.50021 0.910913
15

Ar 0.908217 2.99964 0.914664
Ar 2.8506 1.79811 -0.0605394
Ar -1.86429 3.07108 -1.92319
Ar 1.53497 -1.58703 -0.56316
Ar -0.54787 1.09084 1.80771
Ar 0.930437 0.0973239 0.20387
Ar 0.0684679 -0.215231 1.88967
Ar 0.396249 3.4316 -0.548948
Ar 1.82983 -0.518587 1.26822
Ar 0.194061 1.90533 2.27701
Ar -1.09728 -0.209414 0.692522
Ar 2.21575 0.21872 -1.86833
Ar -0.971491 -1.0771 2.77059
Ar 0.676502 2.03358 0.688863
Ar 2.73763 -1.5126 0.886603
15

Ar 0.904821 3.00034 0.905875
Ar 2.8885 1.78753 -0.0603499
Ar -1.88015 3.08936 -1.91199
Ar 1.55828 -1.58146 -0.564153
Ar -0.561823 1.07687 1.8119
Ar 0.942944 0.0881846 0.21846
Ar 0.0654148 -0.218761 1.89828
Ar 0.416498 3.45405 -0.554292
Ar 1.80501 -0.515253 1.24642
Ar 0.201303 1.90959 2.27914
Ar -1.11072 -0.219943 0.731143
Ar 2.20683 0.231231 -1.87221
Ar -0.981753 -1.08244 2.76381
Ar 0.666722 2.03204 0.681044
Ar 2.73989 -1.52508 0.862461
15

Ar 0.901104 3.00133 0.89717
Ar 2.92649 1.77665 -0.0604171
Ar -1.89604 3.10692 -1.90009
Ar 1.58158 -1.57596 -0.565201
Ar -0.575922 1.06282 1.81602
Ar 0.955598 0.079513 0.233157
Ar 0.0624218 -0.222272 1.90692
Ar 0.436526 3.47635 -0.559933
Ar 1.78005 -0.511403 1.22393
Ar 0.208726 1.91395 2.2814
Ar -1.12391 -0.230234 0.769539
Ar 2.19791 0.244344 -1.87581
Ar -0.991722 -1.08785 2.75728
Ar 0.656765 2.0297 0.673049
Ar 2.74219 -1.53761 0.838522
15

Ar 0.897008 3.00254 0.888536
Ar 2.96457 1.76545 -0.060764
Ar -1.91203 3.12384 -1.88762
Ar 1.60486 -1.57055 -0.566297
Ar -0.590144 1.04874 1.82008
Ar 0.968394 0.0713351 0.247956
Ar 0.0594919 -0.225768 1.9156
Ar 0.456325 3.4985 -0.56589
Ar 1.75505 -0.507084 1.20092
Ar 0.216308 1.91839 2.28378
Ar -1.13681 -0.240283 0.807698
Ar 2.18901 0.258048 -1.87917
Ar -1.00139 -1.09332 2.75103
Ar 0.646633 2.02658 0.664883
Ar 2.74449 -1.55017 0.814818
15

Ar 0.892458 3.00387 0.879956
Ar 3.00274 1.75392 -0.0614111
Ar -1.92816 3.14019 -1.87469
Ar 1.62812 -1.56522 -0.567432
Ar -0.604466 1.03464 1.82407
Ar 0.981323 0.0636786 0.262844
Ar 0.0566281 -0.229252 1.92431
Ar 0.475891 3.5205 -0.57218
Ar 1.73014 -0.502322 1.17754
Ar 0.224033 1.92289 2.28625
Ar -1.1494 -0.250093 0.845619
Ar 2.1801 0.272331 -1.88231
Ar -1.01074 -1.09887 2.74505
Ar 0.636332 2.0227 0.65655
Ar 2.74677 -1.56273 0.791371
15

Ar 0.887373 3.00524 0.871413
Ar 3.04103 1.74204 -0.0623756
Ar -1.94449 3.15603 -1.8614
Ar 1.65136 -1.55998 -0.568597
Ar -0.618867 1.02056 1.82803
Ar 0.994371 0.0565738 0.277798
Ar 0.0538334 -0.232726 1.93305
Ar 0.495224 3.54235 -0.578814
Ar 1.70543 -0.497129 1.15396
Ar 0.231887 1.92744 2.28882
Ar -1.16165 -0.259671 0.883307
Ar 2.17117 0.287177 -1.88523
Ar -1.01976 -1.1045 2.73933
Ar 0.625869 2.0181 0.648056
Ar 2.749 -1.57525 0.768202
15

Ar 0.881665 3.00653 0.862891
Ar 3.07945 1.72979 -0.0636706
Ar -1.96104 3.1714 -1.84783
Ar 1.67456 -1.55483 -0.569784
Ar -0.633326 1.00651 1.83195
Ar 1.00751 0.0500561 0.292782
Ar 0.0511026 -0.236192 1.94182
Ar 0.514325 3.56407 -0.585801
Ar 1.68107 -0.491506 1.13031
Ar 0.239858 1.93202 2.29147
Ar -1.17355 -0.269031 0.920771
Ar 2.1622 0.302574 -1.88795
Ar -1.02845 -1.11022 2.73386
Ar 0.615254 2.0128 0.639409
Ar 2.75115 -1.58771 0.745325
15

Ar 0.87524 3.00761 0.854372
Ar 3.11801 1.71718 -0.0653029
Ar -1.97783 3.18635 -1.83404
Ar 1.69772 -1.54978 -0.570983
Ar -0.647824 0.992525 1.83584
Ar 1.0207 0.0441684 0.307742
Ar 0.0484257 -0.239654 1.95061
Ar 0.533198 3.58566 -0.593143
Ar 1.6572 -0.485444 1.10674
Ar 0.247933 1.93662 2.29419
Ar -1.18509 -0.278198 0.958018
Ar 2.15319 0.318505 -1.8905
Ar -1.03681 -1.11604 2.72863
Ar 0.604497 2.00682 0.630616
Ar 2.7532 -1.60008 0.722749
15

Ar 0.868004 3.00838 0.845841
Ar 3.15673 1.70421 -0.0672761
Ar -1.99489 3.20092 -1.82007
Ar 1.72083 -1.54484 -0.572185
Ar -0.662341 0.978619 1.8397
Ar 1.03389 0.0389653 0.322605
Ar 0.0458049 -0.243112 1.95943
Ar 0.551852 3.60715 -0.600838
Ar 1.63399 -0.47894 1.08337
Ar 0.256105 1.94123 2.29699
Ar -1.19625 -0.287197 0.995059
Ar 2.14412 0.334955 -1.89286
Ar -1.04481 -1.12196 2.7236
Ar 0.59361 2.00021 0.621685
Ar 2.75513 -1.61235 0.700493
15

Ar 0.859863 3.0087 0.837286
Ar 3.19561 1.69086 -0.0695887
Ar 1.98777 3.21515 -1.80597
Ar 1.74388 -1.54001 -0.573382
Ar -0.676857 0.964813 1.84355
Ar 1.04703 0.0345178 0.337271
Ar 0.0432426 -0.246569 1.96827
Ar 0.570295 3.62855 -0.60888
Ar 1.61161 -0.471999 1.06036
Ar 0.264365 1.94584 2.29984
Ar -1.20704 -0.296051 1.0319
Ar 2.13496 0.351909 -1.89506
Ar -1.05248 -1.12798 2.71876
Ar 0.582609 1.99299 0.612625
Ar 2.75692 -1.62448 0.678561
15

Ar 0.850735 3.00847 0.828698
Ar 3.23467 1.67715 -0.0722349
Ar 1.97013 3.22906 -1.79176
Ar 1.76686 -1.53529 -0.574562
Ar -0.691353 0.951124 1.84738
Ar 1.06 0.03092 0.351613
Ar 0.0407409 -0.250026 1.97713
Ar 0.588537 3.64988 -0.617259
Ar 1.59024 -0.464649 1.03786
Ar 0.272705 1.95044 2.30276
Ar -1.21746 -0.304786 1.06855
Ar 2.12571 0.369348 -1.8971
Ar -1.0598 -1.1341 2.71409
Ar 0.571508 1.98519 0.603445
Ar 2.75855 -1.63647 0.656947
15

Ar 0.840547 3.00758 0.820072
Ar 3.27389 1.66308 -0.075205
Ar 1.95218 3.24268 -1.77747
Ar 1.78976 -1.5307 -0.575716
Ar -0.70581 0.93757 1.85119
Ar 1.07271 0.0282986 0.365457
Ar 0.0383018 -0.253484 1.986
Ar 0.606591 3.67114 -0.62596
Ar 1.57009 -0.456958 1.01606
Ar 0.281118 1.95502 2.30573
Ar -1.22752 -0.313428 1.10501
Ar 2.11635 0.387252 -1.89899
Ar -1.06678 -1.14034 2.70956
Ar 0.560326 1.97683 0.594155
Ar 2.76001 -1.64831 0.635642
15

Ar 0.829248 3.00595 0.811407
Ar 3.31328 1.64866 -0.0784872
Ar 1.93392 3.25604 -1.7631
Ar 1.81256 -1.52623 -0.576834
Ar -0.720206 0.924165 1.85499
Ar 1.08498 0.0268233 0.378583
Ar 0.0359276 -0.256945 1.9949
Ar 0.624468 3.69235 -0.634968
Ar 1.55139 -0.44905 0.995179
Ar 0.289601 1.95959 2.30874
Ar -1.23723 -0.322006 1.14128
Ar 2.10685 0.405603 -1.90072
Ar -1.07341 -1.14668 2.70517
Ar 0.549083 1.96795 0.584767
Ar 2.7613 -1.65998 0.614631
15

Ar 0.816809 3.00353 0.802706
Ar 3.35282 1.6339 -0.0820682
Ar 1.91535 3.26917 -1.74867
Ar 1.83526 -1.52189 -0.577907
Ar -0.734521 0.910925 1.85878
Ar 1.09663 0.0267195 0.39071
Ar 0.0336199 -0.26041 2.0038
Ar 0.642179 3.71353 -0.644265
Ar 1.53437 -0.441124 0.975501
Ar 0.298147 1.96413 2.3118
Ar -1.2466 -0.330548 1.17737
Ar 2.0972 0.424384 -1.9023
Ar -1.0797 -1.15312 2.70089
Ar 0.5378 1.95857 0.575295
Ar 2.76242 -1.67151 0.593901
15

Ar 0.803226 3.00027 0.793976
Ar 3.39249 1.61882 -0.0859353
Ar 1.89648 3.28207 -1.73418
Ar 1.85783 -1.5177 -0.578922
Ar -0.748733 0.897865 1.86256
Ar 1.1074 0.0282774 0.401492
Ar 0.0313808 -0.26388 2.01272
Ar 0.659737 3.73468 -0.653832
Ar 1.5193 -0.433468 0.957361
Ar 0.306752 1.96864 2.3149
Ar -1.25566 -0.33908 1.21326
Ar 2.08738 0.443578 -1.90374
Ar -1.08566 -1.15967 2.69669
Ar 0.526503 1.94871 0.565752
Ar 2.76335 -1.68288 0.573437
15

Ar 0.788522 2.99619 0.785223
Ar 3.43226 1.60344 -0.090078
Ar 1.87729 3.29478 -1.71964
Ar 1.88027 -1.51364 -0.579872
Ar -0.762819 0.884996 1.86633
Ar 1.11701 0.0318526 0.410529
Ar 0.0292117 -0.267356 2.02165
Ar 0.677152 3.75582 -0.66365
Ar 1.50645 -0.426463 0.941146
Ar 0.315413 1.97312 2.31804
Ar -1.26441 -0.347626 1.24895
Ar 2.07736 0.463169 -1.90503
Ar -1.09129 -1.16631 2.69257
Ar 0.515221 1.93839 0.556157
Ar 2.76412 -1.69411 0.553223
15

Ar 0.772742 2.99131 0.776456
Ar 3.4721 1.58775 -0.09449
Ar 1.8578 3.30731 -1.70504
Ar 1.90255 -1.50973 -0.580744
Ar -0.776758 0.872332 1.87009
Ar 1.12516 0.0378454 0.417402
Ar 0.0271142 -0.270839 2.03058
Ar 0.694431 3.77696 -0.6737
Ar 1.4961 -0.420562 0.927263
Ar 0.324126 1.97756 2.32121
Ar -1.27286 -0.356211 1.28444
Ar 2.06712 0.48314 -1.90619
Ar -1.09658 -1.17305 2.68848
Ar 0.503987 1.92764 0.546531
Ar 2.76474 -1.70522 0.533246
15

Ar 0.755952 2.9857 0.767679
Ar 3.51196 1.57178 -0.0991712
Ar 1.83803 3.31968 -1.69038
Ar 1.92466 -1.50598 -0.58153
Ar -0.790524 0.859883 1.87383
Ar 1.13157 0.046649 0.421732
Ar 0.0250895 -0.27433 2.03952
Ar 0.711583 3.7981 -0.683966
Ar 1.48845 -0.416235 0.91608
Ar 0.332889 1.98196 2.32441
Ar -1.28104 -0.364856 1.31972
Ar 2.05665 0.503476 -1.9072
Ar -1.10154 -1.17987 2.68443
Ar 0.492841 1.91649 0.536902
Ar 2.7652 -1.71621 0.513495
15

Ar 0.738244 2.97943 0.758897
Ar 3.55179 1.55551 -0.104129
Ar 1.81797 3.3319 -1.67567
Ar 1.94658 -1.50237 -0.58222
Ar -0.804096 0.847659 1.87755
Ar 1.13607 0.05857 0.423268
Ar 0.0231389 -0.27783 2.04846
Ar 0.728613 3.81926 -0.69443
Ar 1.48362 -0.413883 0.907842
Ar 0.341699 1.98632 2.32764
Ar -1.28895 -0.373579 1.35479
Ar 2.04592 0.524156 -1.90808
Ar -1.10616 -1.18677 2.68037
Ar 0.48183 1.90497 0.527301
Ar 2.76553 -1.7271 0.49396
15

Ar 0.719702 2.97259 0.750111
Ar 3.59151 1.53897 -0.109383
Ar 1.79763 3.34399 -1.66089
Ar 1.96828 -1.49891 -0.582805
Ar -0.817449 0.835669 1.88127
Ar 1.13861 0.0737466 0.421954
Ar 0.0212633 -0.281339 2.05739
Ar 0.745521 3.84043 -0.705077
Ar 1.48157 -0.413751 0.902601
Ar 0.350554 1.99064 2.33089
Ar -1.29661 -0.382396 1.38962
Ar 2.03491 0.545165 -1.90883
Ar -1.11046 -1.19376 2.6763
Ar 0.471006 1.8931 0.517771
Ar 2.76573 -1.73791 0.474635
15

Ar 0.700415 2.9653 0.741321
Ar 3.63107 1.52212 -0.114964
Ar 1.77705 3.35595 -1.64606
Ar 1.98975 -1.4956 -0.583274
Ar -0.830561 0.82392 1.88496
Ar 1.13929 0.0921051 0.417952
Ar 0.0194633 -0.284857 2.06632
Ar 0.762309 3.86163 -0.715892
Ar 1.48212 -0.415876 0.900194
Ar 0.359451 1.99491 2.33416
Ar -1.30402 -0.39132 1.42423
Ar 2.0236 0.56649 -1.90946
Ar -1.11441 -1.20081 2.67218
Ar 0.460434 1.88094 0.508363
Ar 2.76582 -1.74866 0.455517
15

Ar 0.680469 2.95765 0.732526
Ar 3.67037 1.50495 -0.120911
Ar 1.75621 3.36779 -1.63117
Ar 2.01095 -1.49244 -0.583615
Ar -0.84341 0.812418 1.88863
Ar 1.13835 0.113379 0.411598
Ar 0.0177367 -0.288384 2.07524
Ar 0.778976 3.88286 -0.726865
Ar 1.48497 -0.420103 0.900285
Ar 0.368388 1.99914 2.33746
Ar -1.3112 -0.400363 1.45859
Ar 2.01198 0.588118 -1.90996
Ar -1.11803 -1.20792 2.66799
Ar 0.450187 1.86851 0.499145
Ar 2.76583 -1.75936 0.436607
15

Ar 0.659955 2.94974 0.723726
Ar 3.70932 1.48743 -0.127281
Ar 1.73515 3.37952 -1.61622
Ar 2.03185 -1.48943 -0.583817
Ar -0.855976 0.801166 1.89225
Ar 1.13606 0.137177 0.403323
Ar 0.0160731 -0.291922 2.08415
Ar 0.795516 3.90412 -0.737983
Ar 1.48973 -0.426145 0.902449
Ar 0.377364 2.00332 2.34077
Ar -1.31817 -0.40953 1.49271
Ar 2.00005 0.610039 -1.91036
Ar -1.1213 -1.2151 2.66371
Ar 0.44035 1.8559 0.490198
Ar 2.76579 -1.77003 0.41791
15

Ar 0.638949 2.94165 0.714919
Ar 3.74781 1.46951 -0.134162
Ar 1.71388 3.39113 -1.60122
Ar 2.05243 -1.48656 -0.583873
Ar -0.868242 0.790166 1.89584
Ar 1.13273 0.163069 0.393565
Ar 0.0144739 -0.29547 2.09305
Ar 0.811925 3.92541 -0.749234
Ar 1.49606 -0.433668 0.906249
Ar 0.386378 2.00745 2.34409
Ar -1.32493 -0.418826 1.52657
Ar 1.9878 0.632242 -1.91065
Ar -1.12422 -1.22234 2.65933
Ar 0.431019 1.84317 0.481625
Ar 2.76571 -1.78068 0.399434
15

Ar 0.617518 2.93349 0.706107
Ar 3.78572 1.45113 -0.141663
Ar 1.69242 3.40264 -1.58619
Ar 2.07266 -1.48383 -0.583776
Ar -0.880187 0.779421 1.89939
Ar 1.12862 0.190642 0.38273
Ar 0.0129398 -0.299028 2.10193
Ar 0.828194 3.94673 -0.760606
Ar 1.50361 -0.442349 0.911293
Ar 0.395426 2.01153 2.34743
Ar -1.33151 -0.428252 1.56018
Ar 1.97522 0.654717 -1.91084
Ar -1.12677 -1.22964 2.65481
Ar 0.422295 1.8304 0.473547
Ar 2.76562 -1.79135 0.381193
15

Ar 0.595722 2.9253 0.697289
Ar 3.82295 1.4322 -0.149915
Ar 1.6708 3.41402 -1.57114
Ar 2.09249 -1.48124 -0.583523
Ar -0.891799 0.768929 1.9029
Ar 1.12392 0.219541 0.37115
Ar 0.0114707 -0.302596 2.1108
Ar 0.844313 3.96811 -0.772084
Ar 1.51212 -0.451908 0.917254
Ar 0.404509 2.01556 2.35078
Ar -1.3379 -0.437804 1.59353
Ar 1.9623 0.677456 -1.91095
Ar -1.12894 -1.23699 2.65013
Ar 0.414284 1.81771 0.466109
Ar 2.76554 -1.80204 0.363204
15

Ar 0.573613 2.91717 0.688468
Ar 3.85937 1.41264 -0.15907
Ar 1.64904 3.42528 -1.55609
Ar 2.1119 -1.47876 -0.583109
Ar -0.903068 0.758688 1.90637
Ar 1.11882 0.249472 0.359083
Ar 0.0100663 -0.306174 2.11964
Ar 0.86027 3.98954 -0.783649
Ar 1.52136 -0.462122 0.923878
Ar 0.413624 2.01954 2.35414
Ar -1.34413 -0.447478 1.62661
Ar 1.94904 0.700451 -1.91098
Ar -1.13073 -1.24441 2.64528
Ar 0.407088 1.80519 0.459472
Ar 2.7655 -1.81278 0.345488
15

Ar 0.551238 2.90914 0.679646
Ar 3.8949 1.39234 -0.169288
Ar 1.62718 3.43639 -1.54106
Ar 2.13085 -1.47639 -0.582534
Ar -0.913988 0.748695 1.90979
Ar 1.11345 0.280202 0.346729
Ar 0.00872617 -0.309762 2.12847
Ar 0.876046 0.0110555 -0.795281
Ar 1.53116 -0.47282 0.930968
Ar 0.422769 2.02348 2.3575
Ar -1.35019 -0.457263 1.65942
Ar 1.93544 0.723695 -1.91093
Ar -1.13212 -1.2519 2.64024
Ar 0.400791 1.79296 0.453805
Ar 2.76553 -1.82357 0.328068
15

Ar 0.528636 2.90125 0.670825
Ar 3.92946 1.3712 -0.180728
Ar 1.60525 3.44734 -1.52607
Ar 2.1493 -1.47411 -0.581798
Ar -0.924557 0.738953 1.91317
Ar 1.10789 0.311552 0.334239
Ar 0.00744939 -0.313359 2.13726
Ar 0.891615 0.0326647 -0.806953
Ar 1.54138 -0.483876 0.938376
Ar 0.431944 2.02736 2.36085
Ar -1.35611 -0.467146 1.69196
Ar 1.92151 0.747181 -1.91083
Ar -1.13308 -1.25947 2.63499
Ar 0.395452 1.78116 0.449277
Ar 2.76565 -1.83446 0.310972
15

Ar 0.505841 2.89356 0.662006
Ar 3.96301 1.34914 -0.193527
Ar 1.5833 3.45809 -1.51117
Ar 2.16722 -1.47191 -0.580904
Ar -0.934778 0.729468 1.9165
Ar 1.10222 0.343382 0.321727
Ar 0.00623494 -0.316965 2.14604
Ar 0.906953 0.0543886 -0.818634
Ar 1.55193 -0.495194 0.945992
Ar 0.441147 2.03121 2.3642
Ar -1.36191 -0.477108 1.72421
Ar 1.90725 0.770895 -1.91067
Ar -1.13362 -1.26715 2.62952
Ar 0.391091 1.76989 0.446033
Ar 2.76588 -1.84545 0.294227
15

Ar 0.48288 2.88609 0.653193
Ar 3.99557 1.32609 -0.207785
Ar 1.56137 3.46861 -1.49639
Ar 2.18458 -1.46975 -0.579859
Ar -0.944656 0.720237 1.91979
Ar 1.0965 0.375579 0.309279
Ar 0.00508142 -0.320578 2.15478
Ar 0.922033 0.0762587 -0.830287
Ar 1.56271 -0.506707 0.953733
Ar 0.450376 2.03502 2.36754
Ar -1.36759 -0.487128 1.75616
Ar 1.89269 0.794829 -1.91047
Ar -1.1337 -1.27496 2.62381
Ar 0.387683 1.75923 0.444181
Ar 2.76626 -1.85658 0.277863
15

Ar 0.459775 2.87888 0.644387
Ar 0.027184 1.30203 -0.223549
Ar 1.5395 3.47885 -1.48176
Ar 2.20133 -1.46761 -0.578672
Ar -0.954199 0.711255 1.92302
Ar 1.09077 0.408056 0.296959
Ar 0.00398716 -0.324199 2.1635
Ar 0.936823 0.0983193 -0.841868
Ar 1.57367 -0.518366 0.961537
Ar 0.459629 2.03881 2.37087
Ar -1.37318 -0.497176 1.7878
Ar 1.87784 0.818976 -1.91024
Ar -1.13332 -1.28291 2.61787
Ar 0.385161 1.74922 0.443773
Ar 2.7668 -1.86788 0.261914
15

Ar 0.436547 2.87194 0.635588
Ar 0.0579343 1.27697 -0.240806
Ar 1.51776 3.48874 -1.46735
Ar 2.21745 -1.46545 -0.577354
Ar -0.963419 0.702517 1.92621
Ar 1.08508 0.440735 0.284819
Ar 0.00295014 -0.327826 2.17219
Ar 0.95129 0.120625 -0.853328
Ar 1.58477 -0.530134 0.969357
Ar 0.468905 2.04256 2.3742
Ar -1.3787 -0.507217 1.81911
Ar 1.86271 0.843331 -1.90999
Ar -1.13247 -1.29106 2.6117
Ar 0.383421 1.73989 0.444802
Ar 2.76755 -1.87938 0.246412
15

Ar 0.413209 2.86531 0.626797
Ar 0.0879188 1.25098 -0.259486
Ar 1.4962 3.49821 -1.45321
Ar 2.23292 -1.46325 -0.57592
Ar -0.972331 0.694019 1.92935
Ar 1.07946 0.473552 0.272903
Ar 0.00196801 -0.331457 2.18084
Ar 0.9654 0.14324 -0.864616
Ar 1.59595 -0.541986 0.977157
Ar 0.478202 2.04629 2.3775
Ar -1.38418 -0.51721 1.85007
Ar 1.84732 0.867888 -1.90974
Ar -1.13113 -1.29943 2.60529
Ar 0.382339 1.73119 0.447203
Ar 2.76851 -1.8911 0.231394
15

Ar 0.389774 2.859 0.618014
Ar 0.117235 1.22416 -0.279481
Ar 1.47488 3.50718 -1.4394
Ar 2.24769 -1.46096 -0.574389
Ar -0.980948 0.685756 1.93244
Ar 1.07396 0.506447 0.261246
Ar 0.00103805 -0.335093 2.18946
Ar 0.979119 0.166239 -0.875674
Ar 1.60719 -0.553902 0.984912
Ar 0.487517 2.04999 2.38079
Ar -1.38963 -0.527107 1.88067
Ar 1.83171 0.892641 -1.90948
Ar -1.12927 -1.30808 2.59867
Ar 0.381782 1.72307 0.450869
Ar 2.76973 -1.90309 0.216894
15

Ar 0.366249 2.85303 0.609237
Ar 0.145963 1.19664 -0.300657
Ar 1.45385 3.51554 -1.42597
Ar 2.26175 -1.45855 -0.572778
Ar -0.98929 0.677723 1.93548
Ar 1.06862 0.539362 0.249883
Ar 0.000157135 -0.33873 2.19805
Ar 0.99242 0.189707 -0.886449
Ar 1.61847 -0.565867 0.9926
Ar 0.496848 2.05366 2.38407
Ar -1.39509 -0.536852 1.91086
Ar 1.81588 0.91758 -1.90924
Ar -1.1269 -1.31707 2.59185
Ar 0.381626 1.71544 0.455664
Ar 2.77121 -1.91537 0.202944
15

Ar 0.342642 2.84741 0.600465
Ar 0.174159 1.16854 -0.322872
Ar 1.43315 3.5232 -1.41299
Ar 2.27508 -1.45596 -0.571108
Ar -0.997374 0.669918 1.93846
Ar 1.0635 0.572238 0.238851
Ar -0.000678268 -0.342369 2.2066
Ar 1.00528 0.213734 -0.89689
Ar 1.62977 -0.577873 1.00021
Ar 0.506193 2.05732 2.38733
Ar -1.40059 -0.546381 1.94064
Ar 1.79987 0.942702 -1.90901
Ar -1.12398 -1.32646 2.58485
Ar 0.381758 1.70821 0.461442
Ar 2.77299 -1.928 0.189578
15

Ar 0.318957 2.84216 0.591696
Ar 0.201844 1.14003 -0.345995
Ar 1.41283 3.53004 -1.4005
Ar 2.28767 -1.45314 -0.569398
Ar -1.00521 0.662335 1.94139
Ar 1.05864 0.605011 0.22819
Ar -0.00147214 -0.346007 2.21511
Ar 1.01769 0.238407 -0.906958
Ar 1.64108 -0.58991 1.00772
Ar 0.515547 2.06096 2.39057
Ar -1.40617 -0.555625 1.96998
Ar 1.7837 0.967999 -1.90883
Ar -1.1205 -1.33632 2.57769
Ar 0.382087 1.70131 0.468061
Ar 2.77508 -1.941 0.176823
15

Ar 0.295196 2.83727 0.582932
Ar 0.229003 1.11124 -0.369915
Ar 1.3929 3.53596 -1.38854
Ar 2.29951 -1.45006 -0.567667
Ar -1.01282 0.654969 1.94427
Ar 1.05414 0.637623 0.21795
Ar -0.00222894 -0.349642 2.22357
Ar 1.02967 0.263805 -0.91663
Ar 1.65237 -0.601972 1.01513
Ar 0.524909 2.06459 2.39379
Ar -1.41186 -0.564509 1.99885
Ar 1.76739 0.993464 -1.90868
Ar -1.11644 -1.34673 2.5704
Ar 0.382534 1.69464 0.475392
Ar 2.7775 -1.95441 0.164701
15

Ar 0.271367 2.83275 0.574171
Ar 0.255587 1.08233 -0.394544
Ar 1.37338 3.54088 -1.37714
Ar 2.31059 -1.44667 -0.56593
Ar -1.02022 0.647801 1.94709
Ar 1.05007 0.670015 0.208195
Ar -0.00295376 -0.353273 2.23199
Ar 1.04123 0.289986 -0.925902
Ar 1.66365 -0.614056 1.02243
Ar 0.534273 2.06822 2.39699
Ar -1.41771 -0.572954 2.02723
Ar 1.75098 1.01909 -1.9086
Ar -1.11178 -1.35777 2.56301
Ar 0.383039 1.68816 0.483324
Ar 2.78026 -1.96827 0.153228
15

Ar 0.247477 2.82861 0.565411
Ar 0.281507 1.05342 -0.419824
Ar 1.35425 3.54471 -1.36628
Ar 2.32091 -1.44292 -0.564199
Ar -1.02742 0.640827 1.94985
Ar 1.04654 0.702129 0.198997
Ar -0.00365242 -0.356899 2.24036
Ar 1.05246 0.316978 -0.9348
Ar 1.6749 -0.626157 1.02962
Ar 0.543636 2.07184 2.40017
Ar -1.42376 -0.580883 2.05512
Ar 1.73448 1.04487 -1.90858
Ar -1.10649 -1.3695 2.55554
Ar 0.383552 1.68182 0.491766
Ar 2.78337 -1.98261 0.142412
15

Ar 0.223524 2.82484 0.556647
Ar 0.306646 1.02463 -0.445718
Ar 1.33549 3.54743 -1.35595
Ar 2.33047 -1.43878 -0.562481
Ar -1.03444 0.634044 1.95255
Ar 1.04366 0.733916 0.190439
Ar -0.00433141 -0.360517 2.24866
Ar 1.06345 0.34477 -0.943374
Ar 1.68612 -0.638272 1.03668
Ar 0.552991 2.07546 2.40333
Ar -1.43004 -0.588222 2.08251
Ar 1.71791 1.07081 -1.90865
Ar -1.10055 -1.382 2.548
Ar 0.384028 1.6756 0.500647
Ar 2.78683 -1.99746 0.132251
15

Ar 0.19951 2.82144 0.547875
Ar 0.330855 0.996088 -0.472207
Ar 1.31705 3.54903 -1.34611
Ar 2.3393 -1.43423 -0.560778
Ar -1.0413 0.62745 1.95519
Ar 1.04154 0.765339 0.18261
Ar -0.00499805 -0.364127 2.25692
Ar 1.07431 0.373306 -0.951707
Ar 1.69731 -0.650401 1.04363
Ar 0.562333 2.07909 2.40647
Ar -1.4366 -0.594905 2.1094
Ar 1.70132 1.09688 -1.90881
Ar -1.09394 -1.39535 2.54041
Ar 0.38443 1.66947 0.509917
Ar 2.79063 1.98716 0.122738
15

Ar 0.175437 2.81839 0.539091
Ar 0.353962 0.967881 -0.499267
Ar 1.2989 3.54953 -1.3367
Ar 2.34742 -1.42923 -0.559087
Ar -1.04801 0.621041 1.95777
Ar 1.04029 0.79638 0.175597
Ar -0.00566052 -0.367726 2.26511
Ar 1.08522 0.402482 -0.959905
Ar 1.70847 -0.66254 1.05046
Ar 0.571652 2.08274 2.40959
Ar -1.44346 -0.600881 2.13582
Ar 1.68472 1.1231 -1.90908
Ar -1.08665 -1.4096 2.53275
Ar 0.384722 1.66344 0.519539
Ar 2.79477 1.97124 0.113856
15

Ar 0.151305 2.8157 0.530293
Ar 0.375769 0.9401 -0.526855
Ar 1.28098 3.54899 -1.32766
Ar 2.35485 -1.42376 -0.557397
Ar -1.05458 0.614818 1.96029
Ar 1.03999 0.827036 0.169474
Ar -0.00632805 -0.371312 2.27324
Ar 1.09637 0.43215 -0.968099
Ar 1.71958 -0.674689 1.05715
Ar 0.580934 2.08641 2.4127
Ar -1.45066 -0.606117 2.1618
Ar 1.66813 1.14944 -1.90948
Ar -1.07868 -1.42478 2.52502
Ar 0.384866 1.65751 0.529492
Ar 2.79924 1.95476 0.105586
15

Ar 0.127116 2.81335 0.521476
Ar 0.396059 0.912823 -0.554886
Ar 1.26325 3.54748 -1.31892
Ar 2.36163 -1.41783 -0.555698
Ar -1.06103 0.608777 1.96274
Ar 1.04069 0.857315 0.164282
Ar -0.00701097 -0.374886 2.2813
Ar 1.10803 0.462125 -0.976454
Ar 1.73065 -0.686848 1.06371
Ar 0.590172 2.0901 2.41579
Ar -1.45819 -0.610596 2.18737
Ar 1.65158 1.17591 -1.91003
Ar -1.07002 -1.44092 2.5172
Ar 0.384825 1.65172 0.539766
Ar 2.80402 1.93773 0.0978954
15

Ar 0.102871 2.81135 0.512639
Ar 0.414583 0.886125 -0.583219
Ar 1.24569 3.54509 -1.31042
Ar 2.3678 -1.41143 -0.553972
Ar -1.06737 0.602917 1.96512
Ar 1.04243 0.887241 0.160028
Ar -0.00772088 -0.378445 2.28929
Ar 1.12049 0.492196 -0.98516
Ar 1.74168 -0.699015 1.07013
Ar 0.599353 2.09384 2.41887
Ar -1.46609 -0.614326 2.21258
Ar 1.6351 1.2025 -1.91073
Ar -1.06069 -1.45801 2.50927
Ar 0.384558 1.64609 0.550361
Ar 2.80908 1.92014 0.090748
15

Ar 0.0785738 2.80968 0.50378
Ar 0.431051 0.860076 -0.611649
Ar 1.22824 3.5419 -1.3021
Ar 2.37339 -1.40457 -0.552201
Ar -1.0736 0.597237 1.96744
Ar 1.0452 0.916843 0.156666
Ar -0.0084707 -0.381988 2.2972
Ar 1.13414 0.522149 -0.994424
Ar 1.75267 -0.71119 1.07643
Ar 0.608466 2.09762 2.42195
Ar -1.47432 -0.617333 2.23749
Ar 1.61872 1.22921 -1.91163
Ar -1.05071 -1.47603 2.50119
Ar 0.384023 1.64063 0.561288
Ar 2.8144 1.90201 0.084105
15

Ar 0.0542263 2.80833 0.494896
Ar 0.445138 0.834727 -0.639924
Ar 1.21091 3.538 -1.2939
Ar 2.37845 -1.39726 -0.550365
Ar -1.07974 0.591737 1.96969
Ar 1.04895 0.946145 0.154113
Ar -0.00927481 -0.385515 2.30503
Ar 1.14941 0.551789 -1.00446
Ar 1.76362 -0.723373 1.08259
Ar 0.617496 2.10146 2.42502
Ar -1.4829 -0.619659 2.26215
Ar 1.60246 1.25603 -1.91274
Ar -1.04011 -1.49492 2.49295
Ar 0.383177 1.63539 0.572563
Ar 2.81997 1.88336 0.0779285
15

Ar 0.0298323 2.80728 0.485987
Ar 0.456503 0.81009 -0.667777
Ar 1.19367 3.53349 -1.28579
Ar 2.38301 -1.38953 -0.548444
Ar -1.0858 0.586417 1.97186
Ar 1.05367 0.97516 0.152252
Ar -0.0101491 -0.389025 2.31278
Ar 1.16675 0.580977 -1.01546
Ar 1.77452 -0.735563 1.08863
Ar 0.626427 2.10537 2.4281
Ar -1.49179 -0.621358 2.2866
Ar 1.58635 1.28297 -1.91409
Ar -1.02894 -1.51463 2.48452
Ar 0.381975 1.63039 0.584208
Ar 2.82574 1.86421 0.0721747
15

Ar 0.00539562 2.80651 0.477053
Ar 0.464852 0.786114 -0.694974
Ar 1.17653 3.52844 -1.27771
Ar 2.38712 -1.3814 -0.546419
Ar -1.09177 0.581276 1.97396
Ar 1.05929 1.00389 0.150948
Ar -0.0111108 -0.392518 2.32043
Ar 1.18655 0.609663 -1.02755
Ar 1.78539 -0.747749 1.09454
Ar 0.635239 2.10936 2.43119
Ar -1.50096 -0.622492 2.31088
Ar 1.57042 1.31 -1.91572
Ar -1.01725 -1.5351 2.47588
Ar 0.380376 1.62566 0.596247
Ar 2.83171 1.84458 0.0668002
15

Ar -0.0190795 2.80602 0.468093
Ar 0.470016 0.762676 -0.721364
Ar 1.15948 3.52293 -1.26965
Ar 2.39081 -1.3729 -0.54427
Ar -1.09768 0.576311 1.97599
Ar 1.06579 1.03233 0.150061
Ar -0.0121791 -0.395994 2.32797
Ar 1.20909 0.637884 -1.04078
Ar 1.79621 -0.75993 1.10032
Ar 0.643912 2.11346 2.4343
Ar -1.51039 -0.623125 2.33504
Ar 1.5547 1.33713 -1.91765
Ar -1.00507 -1.55624 2.46701
Ar 0.37834 1.62121 0.608706
Ar 2.83783 1.8245 0.0617629
15

Ar -0.0435884 2.80578 0.459109
Ar 0.472018 0.739597 -0.7469
Ar 1.14253 3.517 -1.26156
Ar 2.39413 -1.36407 -0.541979
Ar -1.10351 0.571521 1.97793
Ar 1.07311 1.06048 0.149456
Ar -0.0133743 -0.399456 2.3354
Ar 1.23441 0.665744 -1.05507
Ar 1.807 -0.772106 1.10598
Ar 0.652418 2.11767 2.43744
Ar -1.52004 -0.62332 2.3591
Ar 1.53922 1.36436 -1.91994
Ar -0.992477 -1.57798 2.45792
Ar 0.375829 1.61704 0.621606
Ar 2.84409 1.80399 0.0570229
15

Ar -0.0681264 2.80579 0.450101
Ar 0.471079 0.716685 -0.771633
Ar 1.12571 3.51073 -1.25342
Ar 2.39712 -1.35494 -0.539527
Ar -1.10928 0.5669 1.9798
Ar 1.08124 1.08832 0.149012
Ar -0.0147186 -0.402903 2.34271
Ar 1.26236 0.693371 -1.07025
Ar 1.81775 -0.784275 1.11152
Ar 0.66073 2.12203 2.44063
Ar -1.52988 -0.623133 2.38308
Ar 1.52403 1.39168 -1.92261
Ar -0.979506 -1.60026 2.44861
Ar 0.372811 1.61317 0.634968
Ar 2.85047 1.78308 0.0525432
15

Ar -0.0926886 2.80603 0.441072
Ar 0.467571 0.693785 -0.795676
Ar 1.10903 3.50415 -1.24521
Ar 2.39981 -1.34554 -0.536898
Ar -1.11499 0.562446 1.98158
Ar 1.09013 1.11587 0.148624
Ar -0.0162356 -0.40634 2.34989
Ar 1.29261 0.72087 -1.08609
Ar 1.82846 -0.796438 1.11694
Ar 0.668814 2.12654 2.44388
Ar -1.53988 -0.622604 2.40697
Ar 1.50914 1.4191 -1.92572
Ar -0.96621 -1.623 2.43908
Ar 0.369264 1.60958 0.648805
Ar 2.85694 1.7618 0.0482899
15

Ar -0.11727 2.8065 0.432031
Ar 0.461936 0.670801 -0.819162
Ar 1.0925 3.49731 -1.23692
Ar 2.40223 -1.33592 -0.534072
Ar -1.12064 0.558155 1.98328
Ar 1.09977 1.14312 0.148208
Ar -0.0179506 -0.40977 2.35692
Ar 1.32478 0.748293 -1.10236
Ar 1.83915 -0.808594 1.12225
Ar 0.67663 2.13124 2.4472
Ar -1.54999 -0.621776 2.43079
Ar 1.4946 1.4466 -1.92933
Ar -0.952635 -1.64615 2.42935
Ar 0.365174 1.60626 0.663125
Ar 2.86349 1.74018 0.0442325
15

Ar -0.141865 2.80719 0.422988
Ar 0.454613 0.647698 -0.842211
Ar 1.07617 3.49024 -1.22853
Ar 2.40442 -1.32613 -0.531032
Ar -1.12624 0.554021 1.98489
Ar 1.11011 1.17009 0.147696
Ar -0.0198905 -0.413198 2.36378
Ar 1.35846 0.775639 -1.11882
Ar 1.8498 -0.820742 1.12744
Ar 0.684134 2.13616 2.45062
Ar -1.5602 -0.620683 2.45453
Ar 1.48044 1.47419 -1.9335
Ar -0.938822 -1.66965 2.41942
Ar 0.360541 1.60317 0.677926
Ar 2.87009 1.71825 0.0403435
15

Ar -0.166464 2.80808 0.413947
Ar 0.445989 0.624493 -0.864921
Ar 1.06007 3.48297 -1.22001
Ar 2.40641 -1.3162 -0.527759
Ar -1.13179 0.55004 1.98641
Ar 1.12112 1.1968 0.147042
Ar -0.0220836 -0.416633 2.37047
Ar 1.3933 0.802867 -1.13531
Ar 1.86042 -0.832878 1.13252
Ar 0.691278 2.14133 2.45417
Ar -1.57048 -0.619349 2.47816
Ar 1.4667 1.50187 -1.93828
Ar -0.92481 -1.69345 2.40932
Ar 0.355371 1.60029 0.693199
Ar 2.87674 1.69601 0.0365986
15

Ar -0.191049 2.80917 0.40491
Ar 0.436377 0.601228 -0.887356
Ar 1.04422 3.47552 -1.21137
Ar 2.40822 -1.30618 -0.524233
Ar -1.13729 0.546206 1.98783
Ar 1.13277 1.22328 0.146215
Ar -0.0245599 -0.420083 2.37696
Ar 1.42902 0.829915 -1.15166
Ar 1.871 -0.844996 1.1375
Ar 0.698006 2.14679 2.45788
Ar -1.58082 -0.617793 2.50168
Ar 1.4534 1.5296 -1.94374
Ar -0.910639 -1.71751 2.39905
Ar 0.349685 1.59759 0.708928
Ar 2.88343 1.67351 0.0329768
15

Ar -0.215614 2.81045 0.395881
Ar 0.426021 0.577965 -0.909556
Ar 1.02868 3.46793 -1.20258
Ar 2.40987 -1.29611 -0.52043
Ar -1.14273 0.542511 1.98915
Ar 1.14499 1.24954 0.145199
Ar -0.0273508 -0.423561 2.38323
Ar 1.46542 0.856716 -1.16777
Ar 1.88154 -0.857092 1.14237
Ar 0.704257 2.15256 2.46179
Ar -1.59118 -0.616023 2.52505
Ar 1.44058 1.55737 -1.94995
Ar -0.89634 -1.74178 2.38863
Ar 0.343508 1.59503 0.725089
Ar 2.89013 1.65074 0.0294594
15

Ar -0.240154 2.81191 0.386862
Ar 0.415108 0.554777 -0.931545
Ar 1.01346 3.46018 -1.19364
Ar 2.41139 -1.28604 -0.516329
Ar -1.14812 0.53895 1.99037
Ar 1.15774 1.27562 0.143988
Ar -0.0304891 -0.427082 2.38925
Ar 1.50234 0.883211 -1.18356
Ar 1.89204 -0.869166 1.14714
Ar 0.709967 2.1587 2.46595
Ar -1.60157 -0.614041 2.54825
Ar 1.42827 1.58514 -1.95697
Ar -0.881936 -1.76624 2.37808
Ar 0.336875 1.59258 0.741654
Ar 2.89686 1.62775 0.0260306
15

Ar -0.264663 2.81354 0.377867
Ar 0.403776 0.531738 -0.953329
Ar 0.998616 3.4523 -1.18452
Ar 2.41279 -1.27601 -0.511901
Ar -1.15347 0.535513 1.99148
Ar 1.17096 1.30155 0.142585
Ar -0.0340086 -0.430661 2.395
Ar 1.53969 0.909355 -1.19898
Ar 1.90251 -0.881215 1.15182
Ar 0.715068 2.16523 2.47042
Ar -1.61197 -0.61184 2.57126
Ar 1.41652 1.61288 -1.96484
Ar -0.867451 -1.79086 2.36742
Ar 0.329823 1.59019 0.758588
Ar 2.90359 1.60453 0.0226767
15

Ar -0.289133 2.81534 0.368906
Ar 0.39213 0.508926 -0.974906
Ar 0.984171 3.44427 -1.17522
Ar 2.41409 -1.26606 -0.507121
Ar -1.15876 0.532193 1.99248
Ar 1.18461 1.32736 0.141002
Ar -0.0379447 -0.43432 2.40044
Ar 1.57738 0.935119 -1.214
Ar 1.91295 -0.893236 1.1564
Ar 0.71949 2.1722 2.47527
Ar -1.62238 -0.60941 2.59402
Ar 1.40535 1.64052 -1.97363
Ar -0.852902 -1.81561 2.35665
Ar 0.322393 1.58786 0.775858
Ar 2.91032 1.58111 0.0193862
15

Ar -0.313559 2.81729 0.359984
Ar 0.38025 0.486421 -0.996268
Ar 0.970163 3.43609 -1.16571
Ar 2.41531 -1.25625 -0.501958
Ar -1.16399 0.52898 1.99337
Ar 1.19864 1.35306 0.139253
Ar -0.0423333 -0.438088 2.40553
Ar 1.61539 0.96049 -1.2286
Ar 1.92336 -0.905227 1.1609
Ar 0.723169 2.17963 2.48054
Ar -1.6328 -0.606733 2.61652
Ar 1.3948 1.66803 -1.98338
Ar -0.838306 -1.84048 2.34579
Ar 0.314623 1.58554 0.793425
Ar 2.91706 1.55749 0.0161493
15

Ar -0.337931 2.81939 0.351105
Ar 0.368198 0.464306 -1.0174
Ar 0.956622 3.42776 -1.15599
Ar 2.41646 -1.2466 -0.496381
Ar -1.16917 0.525863 1.99413
Ar 1.21298 1.37868 0.137353
Ar -0.0472113 -0.442003 2.41025
Ar 1.65366 0.98547 -1.24279
Ar 1.93374 -0.917186 1.16532
Ar 0.726044 2.18755 2.48632
Ar -1.64321 -0.603787 2.63871
Ar 1.38492 1.69533 -1.99412
Ar -0.823676 -1.86543 2.33484
Ar 0.306554 1.58321 0.811249
Ar 2.92379 1.5337 0.0129555
15

Ar -0.362243 2.82163 0.342273
Ar 0.356022 0.442667 -1.03829
Ar 0.943579 3.41927 -1.14603
Ar 2.41754 -1.23718 -0.490357
Ar -1.17428 0.522831 1.99476
Ar 1.2276 1.40424 0.13532
Ar -0.0526161 -0.446107 2.41456
Ar 1.69217 1.01008 -1.25659
Ar 1.9441 -0.929107 1.16966
Ar 0.728068 2.19596 2.49266
Ar -1.65363 -0.600546 2.66054
Ar 1.37574 1.72237 1.99412
Ar -0.809024 -1.89046 2.32383
Ar 0.298222 1.58087 0.829294
Ar 2.93053 1.50974 0.00979508
15

Ar -0.386482 2.824 0.333496
Ar 0.343769 0.421593 -1.0589
Ar 0.93106 3.41063 -1.13581
Ar 2.41859 -1.22803 -0.483853
Ar -1.17933 0.519871 1.99525
Ar 1.24245 1.42974 0.133172
Ar -0.0585831 -0.45045 2.41842
Ar 1.73089 1.03434 -1.27001
Ar 1.95443 -0.940989 1.17392
Ar 0.729206 2.20486 2.49963
Ar -1.66406 -0.596977 2.68197
Ar 1.36727 1.7491 1.98133
Ar -0.794359 -1.91555 2.31275
Ar 0.289661 1.57849 0.847526
Ar 2.93727 1.48563 0.00666314
15

Ar -0.41064 2.8265 0.32478
Ar 0.331477 0.401178 -1.07923
Ar 0.919089 3.40183 -1.12533
Ar 2.41959 -1.21919 -0.476838
Ar -1.18431 0.516969 1.99559
Ar 1.25749 1.45518 0.130925
Ar -0.0651451 -0.455089 2.4218
Ar 1.7698 1.05828 -1.28309
Ar 1.96474 -0.952825 1.17812
Ar 0.729441 2.21423 2.50727
Ar -1.67451 -0.593048 2.70297
Ar 1.35954 1.77549 1.96748
Ar -0.779689 -1.94069 2.30162
Ar 0.280899 1.57607 0.865916
Ar 2.944 1.46137 0.00355587
15

Ar -0.434703 2.82911 0.316133
Ar 0.319186 0.381519 -1.09924
Ar 0.907684 3.39287 -1.11455
Ar 2.42058 -1.2107 -0.469281
Ar -1.18922 0.514109 1.99579
Ar 1.27269 1.48058 0.128596
Ar -0.0723406 -0.460091 2.42465
Ar 1.80885 1.08195 -1.29585
Ar 1.97503 -0.964608 1.18224
Ar 0.728779 2.22402 2.51562
Ar -1.68498 -0.588724 2.72348
Ar 1.35254 1.80151 1.9526
Ar -0.765021 -1.96586 2.29044
Ar 0.271965 1.57359 0.884432
Ar 2.95074 1.43697 0.000470528
15

Ar -0.458657 2.83183 0.307564
Ar 0.306938 0.36272 -1.1189
Ar 0.896859 3.38376 -1.10345
Ar 2.42154 -1.2026 -0.461153
Ar -1.19404 0.511274 1.99581
Ar 1.28801 1.50594 0.126198
Ar -0.0802076 -0.465531 2.42694
Ar 1.84802 1.10537 -1.30831
Ar 1.9853 -0.976331 1.1863
Ar 0.727243 2.23418 2.5247
Ar -1.69549 -0.583971 2.74347
Ar 1.34625 1.82716 1.9367
Ar -0.750357 -1.99104 2.27922
Ar 0.262882 1.57105 0.903046
Ar 2.95748 1.41243 -0.00259468
15

Ar -0.482486 2.83465 0.299084
Ar 0.294775 0.344881 -1.13819
Ar 0.886619 3.37452 -1.09201
Ar 2.4225 -1.19494 -0.452434
Ar -1.19878 0.508446 1.99566
Ar 1.30343 1.53126 0.123744
Ar -0.088784 -0.471489 2.42863
Ar 1.88727 1.1286 -1.3205
Ar 1.99556 -0.987986 1.1903
Ar 0.724877 2.24464 2.5345
Ar -1.70605 -0.57876 2.76289
Ar 1.34065 1.85243 1.91983
Ar -0.735703 1.98376 2.26796
Ar 0.253669 1.56845 0.921723
Ar 2.96423 1.38778 -0.00563906
15

Ar -0.506172 2.83757 0.290705
Ar 0.282743 0.328105 -1.15708
Ar 0.876967 3.36516 -1.08021
Ar 2.42345 -1.18774 -0.443106
Ar -1.20342 0.505602 1.99531
Ar 1.31893 1.55654 0.121245
Ar -0.0981053 -0.478054 2.42967
Ar 1.92657 1.15168 -1.33244
Ar 2.0058 -0.999568 1.19424
Ar 0.721737 2.25532 2.545
Ar -1.71668 -0.573064 2.78173
Ar 1.33569 1.87735 1.90204
Ar -0.721058 1.95857 2.25667
Ar 0.244345 1.56578 0.940439
Ar 2.97098 1.36301 -0.00865105
15

Ar -0.52969 2.84057 0.28244
Ar 0.270903 0.312491 -1.17555
Ar 0.867896 3.3557 -1.06804
Ar 2.4244 -1.18104 -0.433161
Ar -1.20796 0.50272 1.99474
Ar 1.33447 1.58178 0.118711
Ar -0.108202 -0.485314 2.43004
Ar 1.96586 1.17464 -1.34415
Ar 2.01604 -1.01107 1.19812
Ar 0.717891 2.26612 2.55616
Ar -1.72739 -0.566854 2.79994
Ar 1.3313 1.90194 1.88338
Ar -0.706423 1.93339 2.24536
Ar 0.234923 1.56304 0.959172
Ar 2.97775 1.33814 -0.0116274
15

Ar -0.553016 2.84366 0.274308
Ar 0.259306 0.298129 -1.19358
Ar 0.859397 3.34618 -1.05545
Ar 2.42534 -1.17486 -0.422601
Ar -1.2124 0.499776 1.99394
Ar 1.35005 1.60698 0.116149
Ar -0.119103 -0.493358 2.42972
Ar 2.00513 1.19754 -1.35563
Ar 2.02628 -1.02248 1.20194
Ar 0.713413 2.27695 2.56793
Ar -1.73822 -0.560108 2.8175
Ar 1.32745 1.92623 1.86395
Ar -0.691796 1.90823 2.23402
Ar 0.225418 1.56022 0.977901
Ar 2.98453 1.31316 -0.0145665
15

Ar -0.576118 2.84682 0.266326
Ar 0.248 0.285099 -1.21117
Ar 0.851452 3.33665 -1.04244
Ar 2.42626 -1.16921 -0.411439
Ar -1.21673 0.496744 1.9929
Ar 1.36565 1.63214 0.113567
Ar -0.130833 -0.50227 2.42868
Ar 2.04432 1.2204 -1.36689
Ar 2.03653 -1.03379 1.20571
Ar 0.708376 2.28772 2.58024
Ar -1.74917 -0.552808 2.83442
Ar 1.32404 1.95024 1.84383
Ar -0.677173 1.88311 2.22267
Ar 0.215841 1.55733 0.996608
Ar 2.99133 1.28809 -0.0174664
15

Ar -0.598957 2.85004 0.258519
Ar 0.23703 0.273477 -1.22831
Ar 0.844041 3.32715 -1.02899
Ar 2.42714 -1.1641 -0.399698
Ar -1.22096 0.493596 1.99161
Ar 1.38126 1.65724 0.110969
Ar -0.143409 -0.51212 2.42693
Ar 2.0834 1.24326 -1.37794
Ar 2.0468 -1.04499 1.20942
Ar 0.702852 2.29831 2.59302
Ar -1.76025 -0.544943 2.85067
Ar 1.32104 1.97401 1.82309
Ar -0.66256 1.85804 2.21131
Ar 0.206203 1.55436 1.01527
Ar 2.99815 1.26293 -0.0203247
15

Ar -0.621489 2.85333 0.250913
Ar 0.226435 0.26331 -1.245
Ar 0.837138 3.31774 -1.01508
Ar 2.42796 -1.15954 -0.387417
Ar -1.22508 0.490305 1.99005
Ar 1.39685 1.6823 0.10836
Ar -0.156838 -0.522964 2.42445
Ar 2.12234 1.26617 -1.38877
Ar 2.05709 -1.05607 1.21309
Ar 0.696907 2.30862 2.60619
Ar -1.77148 -0.536508 2.86627
Ar 1.3184 1.99755 1.80182
Ar -0.647963 1.83303 2.19993
Ar 0.196514 1.5513 1.03388
Ar 3.00499 1.23768 -0.023139
15

Ar -0.643653 2.85668 0.243539
Ar 0.216246 0.254615 -1.26126
Ar 0.830716 3.3085 -1.00068
Ar 2.42868 -1.15552 -0.374646
Ar -1.22909 0.486846 1.9882
Ar 1.41242 1.7073 0.105743
Ar -0.171115 -0.534837 2.42128
Ar 2.16111 1.28915 -1.3994
Ar 2.06742 -1.06701 1.21669
Ar 0.690599 2.31855 2.61968
Ar -1.78287 -0.527504 2.88122
Ar 1.31605 2.02089 1.78011
Ar -0.633372 1.80809 2.18856
Ar 0.186787 1.54817 1.0524
Ar 3.01185 1.21234 -0.0259065
15

Ar -0.665383 2.86008 0.236437
Ar 0.206484 0.247379 -1.27712
Ar 0.824745 3.29949 -0.985776
Ar 2.42925 -1.15203 -0.36145
Ar -1.23302 0.483191 1.98608
Ar 1.42795 1.73223 0.103122
Ar -0.186224 -0.547748 2.41743
Ar 2.19967 1.31222 -1.40981
Ar 2.07781 -1.07781 1.22025
Ar 0.683979 2.32802 2.6334
Ar -1.79441 -0.517939 2.89556
Ar 1.31393 2.04404 1.75803
Ar -0.618775 1.78324 2.1772
Ar 0.177035 1.54495 1.07082
Ar 3.01873 1.18692 -0.0286247
15

Ar -0.686604 2.86354 0.229649
Ar 0.197148 0.241565 -1.29261
Ar 0.819196 3.2908 -0.970356
Ar 2.42961 -1.14904 -0.347906
Ar -1.23687 0.47932 1.98366
Ar 1.44344 1.75709 0.100498
Ar -0.202137 -0.561685 2.41295
Ar 2.23799 1.33542 -1.42
Ar 2.08826 -1.08844 1.22376
Ar 0.67709 2.33694 2.64729
Ar -1.8061 -0.507825 2.90929
Ar 1.312 2.06701 1.73565
Ar -0.604157 1.75849 2.16585
Ar 0.167275 1.54164 1.08912
Ar 3.02564 1.16143 -0.031291
15

Ar -0.707224 2.86704 0.223227
Ar 0.188246 0.237109 -1.30776
Ar 0.814037 3.28252 -0.954399
Ar 2.42968 -1.14653 -0.334104
Ar -1.24065 0.475212 1.98094
Ar 1.45886 1.78186 0.0978715
Ar -0.218817 -0.576615 2.40788
Ar 2.27603 1.35875 -1.42997
Ar 2.09881 -1.09889 1.22721
Ar 0.669964 2.34523 2.66126
Ar -1.81794 -0.497178 2.92246
Ar 1.31019 2.0898 1.71304
Ar -0.589502 1.73386 2.15452
Ar 0.157526 1.53824 1.10727
Ar 3.03257 1.13585 -0.033903
15

Ar -0.727136 2.87059 0.217232
Ar 0.179767 0.233931 -1.32261
Ar 0.809241 3.27471 -0.937888
Ar 2.42935 -1.14449 -0.320146
Ar -1.24439 0.470852 1.97793
Ar 1.47423 1.80654 0.0952444
Ar -0.236217 -0.592483 2.40227
Ar 2.31376 1.38224 -1.43971
Ar 2.10946 -1.10913 1.23061
Ar 0.66263 2.3528 2.67526
Ar -1.82992 -0.486018 2.93509
Ar 1.30845 2.11242 1.69025
Ar -0.57479 1.70934 2.14323
Ar 0.147808 1.53474 1.12524
Ar 3.03952 1.11021 -0.0364585
15

Ar -0.746216 2.87419 0.211731
Ar 0.171696 0.231933 -1.3372
Ar 0.804781 3.26745 -0.920804
Ar 2.42852 -1.14286 -0.306146
Ar -1.2481 0.466232 1.97463
Ar 1.48952 1.83112 0.0926168
Ar -0.254283 -0.609222 2.39617
Ar 2.35116 1.40588 -1.44922
Ar 2.12025 -1.11917 1.23396
Ar 0.655105 2.35959 2.68921
Ar -1.84204 -0.474367 2.94722
Ar 1.30674 2.13486 1.66734
Ar -0.560004 1.68497 2.132
Ar 0.138149 1.53115 1.14299
Ar 3.04649 1.08449 -0.0389555
15

Ar -0.764323 2.87784 0.206798
Ar 0.164011 0.231009 -1.35157
Ar 0.800632 3.26083 -0.903134
Ar 2.42706 -1.14164 -0.292233
Ar -1.25181 0.461346 1.97104
Ar 1.50473 1.85557 0.0899889
Ar -0.272958 -0.626752 2.38964
Ar 2.38819 1.42969 -1.45848
Ar 2.1312 -1.12896 1.23727
Ar 0.647405 2.36553 2.70305
Ar -1.8543 -0.462247 2.95889
Ar 1.30499 2.15712 1.64437
Ar -0.545122 1.66075 2.12084
Ar 0.128577 1.52746 1.16049
Ar 3.05349 1.05871 -0.0413925
15

Ar -0.781302 2.88155 0.202517
Ar 0.156688 0.231051 -1.36576
Ar 0.796771 3.2549 -0.884862
Ar 2.4248 -1.14078 -0.278535
Ar -1.25554 0.456196 1.96717
Ar 1.51986 1.8799 0.0873605
Ar -0.292184 -0.64499 2.38271
Ar 2.42481 1.45366 -1.46749
Ar 2.14235 -1.13851 1.24052
Ar 0.639538 2.37056 2.71674
Ar -1.86668 -0.449682 2.97012
Ar 1.30316 2.17918 1.62137
Ar -0.530128 1.63669 2.10978
Ar 0.119137 1.52367 1.17767
Ar 3.0605 1.03286 -0.0437681
15

Ar -0.796982 2.88532 0.198972
Ar 0.149701 0.231949 -1.37979
Ar 0.793176 3.24973 -0.865978
Ar 2.4216 -1.14026 -0.265184
Ar -1.25932 0.450786 1.96304
Ar 1.53487 1.90406 0.0847318
Ar -0.311904 -0.663855 2.37543
Ar 2.46099 1.4778 -1.47624
Ar 2.15371 -1.14779 1.24374
Ar 0.631511 2.37464 2.73021
Ar -1.87917 -0.436693 2.98096
Ar 1.30119 2.20105 1.59837
Ar -0.515006 1.61279 2.09887
Ar 0.10988 1.51978 1.19448
Ar 3.06753 1.00695 -0.0460813
15

Ar -0.811188 2.88917 0.196247
Ar 0.143028 0.233597 -1.3937
Ar 0.789829 3.24534 -0.846474
Ar 2.41729 -1.14004 -0.252311
Ar -1.26316 0.445126 1.95865
Ar 1.54978 1.92806 0.0821028
Ar -0.332062 -0.683269 2.36785
Ar 2.49667 1.5021 -1.4847
Ar 2.16532 -1.15678 1.24691
Ar 0.623328 2.37773 2.74344
Ar -1.89178 -0.423301 2.99143
Ar 1.29903 2.22271 1.57542
Ar -0.499749 1.58905 2.08815
Ar 0.100862 1.51579 1.21084
Ar 3.07457 0.980975 -0.0483315
15

Ar -0.823745 2.8931 0.194419
Ar 0.136647 0.235894 -1.4075
Ar 0.786708 3.24179 -0.826346
Ar 2.41171 -1.14011 -0.240037
Ar -1.2671 0.439231 1.95403
Ar 1.56455 1.95186 0.079474
Ar -0.352605 -0.703158 2.36001
Ar 2.53183 1.52656 -1.49286
Ar 2.17722 -1.16549 1.25006
Ar 0.614991 2.37983 2.75639
Ar -1.90448 -0.409525 3.00157
Ar 1.29662 2.24415 1.55253
Ar -0.484361 1.56547 2.07769
Ar 0.092154 1.51169 1.22663
Ar 3.08163 0.954949 -0.0505183
15

Ar -0.834499 2.89714 0.193549
Ar 0.130536 0.238751 -1.42121
Ar 0.783795 3.23907 -0.805596
Ar 2.40472 -1.14043 -0.228466
Ar -1.27114 0.433116 1.94917
Ar 1.57917 1.97543 0.0768449
Ar -0.373487 -0.723455 2.35192
Ar 2.56639 1.55119 -1.50071
Ar 2.18945 -1.17389 1.2532
Ar 0.606503 2.38092 2.76903
Ar -1.91726 -0.395387 3.01139
Ar 1.29393 2.26537 1.52973
Ar -0.46886 1.54203 2.06759
Ar 0.0838421 1.50751 1.24175
Ar 3.0887 0.928871 -0.0526413
15

Ar -0.843323 2.9013 0.193678
Ar 0.124677 0.242081 -1.43486
Ar 0.781071 3.2372 -0.784233
Ar 2.39621 -1.14097 -0.217683
Ar -1.27531 0.426799 1.9441
Ar 1.59361 1.99875 0.0742171
Ar -0.394663 -0.744099 2.34364
Ar 2.60033 1.576 -1.50821
Ar 2.20202 -1.18198 1.25632
Ar 0.597865 2.38101 2.78135
Ar -1.93013 -0.380901 3.02092
Ar 1.29089 2.28637 1.50702
Ar -0.453287 1.51871 2.05796
Ar 0.076028 1.50323 1.25602
Ar 3.09578 0.902744 -0.0547021
15

Ar -0.850137 2.90558 0.194816
Ar 0.119056 0.245806 -1.44843
Ar 0.778514 3.23616 -0.762268
Ar 2.38613 -1.14169 -0.207741
Ar -1.27962 0.420299 1.93885
Ar 1.60786 2.02176 0.0715945
Ar -0.416092 -0.765036 2.33516
Ar 2.63359 1.60101 -1.51536
Ar 2.21498 -1.18978 1.25946
Ar 0.589092 2.38013 2.79333
Ar -1.94306 -0.366079 3.03019
Ar 1.28747 2.30715 1.48443
Ar -0.437704 1.49546 2.04895
Ar 0.068832 1.49889 1.26927
Ar 3.10287 0.876585 -0.0567167
15

Ar -0.854911 2.90999 0.196948
Ar 0.113659 0.249849 -1.46195
Ar 0.776102 3.23592 -0.739723
Ar 2.3745 -1.14256 -0.198666
Ar -1.28408 0.413634 1.93343
Ar 1.62186 2.04444 0.0689835
Ar -0.437736 -0.786217 2.32653
Ar 2.66613 1.62622 -1.52212
Ar 2.22834 -1.19727 1.26263
Ar 0.580195 2.37831 2.80497
Ar -1.95605 -0.350934 3.0392
Ar 1.28363 2.32771 1.46195
Ar -0.422204 1.47223 2.04076
Ar 0.062393 1.49451 1.28128
Ar 3.10996 0.850413 -0.0586898
15

Ar -0.857674 2.91453 0.200025
Ar 0.108479 0.254144 -1.47541
Ar 0.773814 3.23645 -0.716622
Ar 2.36137 -1.14353 -0.190454
Ar -1.28871 0.406825 1.92786
Ar 1.63558 2.06671 0.0663933
Ar -0.459562 -0.807599 2.31776
Ar 2.69792 1.65166 -1.5285
Ar 2.24211 -1.20448 1.26585
Ar 0.571181 2.37561 2.81629
Ar -1.96909 -0.335473 3.04799
Ar 1.27933 2.34806 1.43959
Ar -0.406905 1.44896 2.03362
Ar 0.0568646 1.49013 1.29178
Ar 3.11706 0.824245 -0.0606219
15

Ar -0.858504 2.91922 0.203977
Ar 0.103508 0.258626 -1.48881
Ar 0.771624 3.23771 -0.692997
Ar 2.3469 -1.14452 -0.18308
Ar -1.2935 0.399888 1.92213
Ar 1.64895 2.0885 0.0638377
Ar -0.48154 -0.829142 2.30886
Ar 2.72895 1.67735 -1.53447
Ar 2.25632 -1.21142 1.26914
Ar 0.56206 2.37207 2.82729
Ar -1.98218 -0.319706 3.05655
Ar 1.27456 2.36823 1.41735
Ar -0.391947 1.42555 2.02778
Ar 0.0524074 1.48581 1.3005
Ar 3.12417 0.798089 -0.0625137
15

Ar -0.857521 2.92405 0.208716
Ar 0.0987434 0.263235 -1.50214
Ar 0.76951 3.23964 -0.668882
Ar 2.33127 -1.14545 -0.176507
Ar -1.29848 0.39284 1.91627
Ar 1.66191 2.10972 0.0613361
Ar -0.50364 -0.850812 2.29985
Ar 2.75921 1.70332 -1.54003
Ar 2.27094 -1.21812 1.27252
Ar 0.552842 2.36776 2.83799
Ar -1.99529 -0.303636 3.0649
Ar 1.26931 2.38824 1.39523
Ar -0.377478 1.40191 2.0235
Ar 0.0491759 1.48161 1.30715
Ar 3.13128 0.77195 -0.0643658
15

Ar -0.854872 2.92902 0.214146
Ar 0.0941852 0.267909 -1.5154
Ar 0.767448 3.24219 -0.644311
Ar 2.31471 -1.14619 -0.170693
Ar -1.30363 0.3857 1.91028
Ar 1.67436 2.13026 0.0589149
Ar -0.525836 -0.872574 2.29075
Ar 2.7887 1.72955 -1.54518
Ar 2.28598 -1.2246 1.27602
Ar 0.543537 2.36274 2.84841
Ar 1.99157 -0.287259 3.07305
Ar 1.26357 2.40809 1.37322
Ar -0.363638 1.37793 2.02105
Ar 0.0473006 1.47763 1.31147
Ar 3.13839 0.745838 -0.0661789
15

Ar -0.850719 2.93413 0.220169
Ar 0.089836 0.272591 -1.52859
Ar 0.765415 3.24532 -0.619319
Ar 2.29751 -1.14658 -0.165604
Ar -1.30897 0.378485 1.90417
Ar 1.6862 2.14996 0.0566102
Ar -0.548101 -0.894395 2.28157
Ar 2.81744 1.75608 -1.54993
Ar 2.3014 -1.23088 1.27965
Ar 0.534159 2.35707 2.85856
Ar 1.9784 -0.270581 3.08102
Ar 1.25734 2.42782 1.35132
Ar -0.350534 1.3535 2.02062
Ar 0.0468682 1.47396 1.31325
Ar 3.14551 0.719755 -0.0679538
15

Ar -0.845222 2.93936 0.226692
Ar 0.0857021 0.277219 -1.54168
Ar 0.763389 3.24897 -0.593951
Ar 2.27997 -1.14644 -0.161219
Ar -1.31449 0.371209 1.89795
Ar 1.69729 2.16866 0.0544692
Ar -0.570409 -0.916239 2.27231
Ar 2.84546 1.7829 -1.55428
Ar 2.31719 -1.237 1.28341
Ar 0.524719 2.35082 2.86848
Ar 1.96523 -0.253607 3.0888
Ar 1.25065 2.44745 1.32954
Ar -0.33823 1.32853 2.02232
Ar 0.0479046 1.4707 1.31237
Ar 3.15264 0.693708 -0.0696913
15

Ar -0.838538 2.94471 0.233631
Ar 0.0817941 0.281726 -1.55465
Ar 0.761346 3.25308 -0.568241
Ar 2.26241 -1.14551 -0.157536
Ar -1.32021 0.363884 1.89161
Ar 1.70746 2.18612 0.052552
Ar -0.592731 -0.938069 2.263
Ar 2.87278 1.81001 -1.55825
Ar 2.3333 -1.24299 1.28733
Ar 0.51523 2.34404 2.87819
Ar 1.95204 -0.236341 3.09641
Ar 1.24349 2.467 1.30789
Ar -0.326735 1.30296 2.02617
Ar 0.0503689 1.46793 1.30883
Ar 3.15977 0.667701 -0.071392
15

Ar -0.830807 2.95016 0.240911
Ar 0.0781275 0.286038 -1.5675
Ar 0.759264 3.25762 -0.542223
Ar 2.24516 -1.14354 -0.154577
Ar -1.32612 0.356518 1.88517
Ar 1.71653 2.20209 0.0509326
Ar -0.615037 -0.95984 2.25364
Ar 2.89944 1.83737 -1.56187
Ar 2.34969 -1.24886 1.2914
Ar 0.505706 2.33679 2.88771
Ar 1.93885 -0.218789 3.10386
Ar 1.23591 2.4865 1.28635
Ar -0.316008 1.27676 2.03206
Ar 0.0541591 1.46569 1.30274
Ar 3.16691 0.641739 -0.0730569
15

Ar -0.822155 2.95571 0.248468
Ar 0.074724 0.29007 -1.58019
Ar 0.757124 3.26255 -0.515926
Ar 2.22856 -1.1402 -0.152383
Ar -1.33222 0.349123 1.87862
Ar 1.7243 2.21626 0.0496968
Ar -0.637294 -0.981498 2.24423
Ar 2.92548 1.86496 -1.56514
Ar 2.36632 -1.25465 1.29563
Ar 0.496158 2.32913 2.89706
Ar 1.92566 -0.200954 3.11114
Ar 1.22791 2.50596 1.26494
Ar -0.305978 1.24997 2.03979
Ar 0.0591289 1.464 1.29429
Ar 3.17406 0.615826 -0.0746868
15

Ar -0.812693 2.96133 0.256228
Ar 0.0716137 0.29372 -1.59268
Ar 0.754906 3.26781 -0.489379
Ar 2.21292 -1.13515 -0.151009
Ar -1.33851 0.341706 1.87198
Ar 1.73056 2.22831 0.0489375
Ar -0.659463 -1.00297 2.23482
Ar 2.95094 1.89269 -1.56809
Ar 2.38313 -1.26038 1.3
Ar 0.4866 2.32109 2.90627
Ar 1.91247 -0.182839 3.11826
Ar 1.21954 2.5254 1.24366
Ar -0.296564 1.22271 2.04909
Ar 0.0651101 1.46285 1.28375
Ar 3.18121 0.589968 -0.0762827
15

Ar -0.802513 2.96703 0.26414
Ar 0.0688369 0.296863 -1.60495
Ar 0.752594 3.27338 -0.462609
Ar 2.19853 -1.12809 -0.150517
Ar -1.34499 0.334275 1.86524
Ar 1.73515 2.23793 0.0487456
Ar -0.681499 -1.02418 2.22541
Ar 2.97584 1.92047 -1.57074
Ar 2.40008 -1.26607 1.30449
Ar 0.477044 2.31273 2.91536
Ar 1.89927 -0.164447 3.12523
Ar 1.21081 2.54485 1.22251
Ar -0.287695 1.19512 2.05967
Ar 0.0719329 1.46221 1.27141
Ar 3.18838 0.56417 -0.0778458
15

Ar -0.791697 2.97277 0.272168
Ar 0.0664478 0.299345 -1.61694
Ar 0.750173 3.27923 -0.435642
Ar 2.18559 -1.11874 -0.150957
Ar -1.35166 0.326836 1.85841
Ar 1.73793 2.24486 0.0491961
Ar -0.703351 -1.04498 2.216
Ar 3.00023 1.94817 -1.57307
Ar 2.41711 -1.27175 1.30909
Ar 0.467503 2.30408 2.92433
Ar 1.88608 -0.145779 3.13204
Ar 1.20175 2.56432 1.2015
Ar -0.279325 1.16742 2.07124
Ar 0.0794407 1.46202 1.25756
Ar 3.19556 0.538439 -0.0793772
15

Ar -0.780322 2.97856 0.28028
Ar 0.0645171 0.300968 -1.6286
Ar 0.747631 3.28532 -0.408499
Ar 2.17421 -1.10693 -0.152355
Ar -1.35852 0.319397 1.85148
Ar 1.73889 2.24893 0.050333
Ar -0.724956 -1.06522 2.20657
Ar 3.02411 1.97558 -1.57509
Ar 2.43415 -1.27743 1.31377
Ar 0.457989 2.29519 2.93322
Ar 1.87289 -0.126836 3.13871
Ar 1.19239 2.58382 1.18065
Ar -0.271445 1.13988 2.08352
Ar 0.0874978 1.46223 1.24244
Ar 3.20274 0.512781 -0.0808787
15

Ar -0.768449 2.98438 0.288455
Ar 0.0631363 0.30148 -1.63987
Ar 0.744957 3.29164 -0.381203
Ar 2.1644 -1.09262 -0.1547
Ar -1.36557 0.311964 1.84447
Ar 1.73808 2.25012 0.0521598
Ar -0.746246 -1.08466 2.19711
Ar 3.0475 2.00247 -1.57674
Ar 2.45115 -1.28313 1.31847
Ar 0.448515 2.28609 2.94204
Ar 1.85969 -0.107617 3.14522
Ar 1.18277 2.60336 1.15996
Ar -0.264084 1.11281 2.09623
Ar 0.095992 1.46275 1.22629
Ar 3.20994 0.487204 -0.082352
15

Ar -0.75613 2.99021 0.296671
Ar 0.0624205 0.300586 -1.65066
Ar 0.742143 3.29817 -0.353774
Ar 2.15608 -1.07591 -0.157945
Ar -1.37281 0.304542 1.83737
Ar 1.73566 2.24851 0.0546383
Ar -0.767146 -1.10299 2.18757
Ar 3.07038 2.02848 -1.57797
Ar 2.46803 -1.28886 1.32316
Ar 0.439096 2.27682 2.9508
Ar 1.84648 -0.0881206 3.15157
Ar 1.17289 2.62296 1.13946
Ar -0.257315 1.08658 2.10916
Ar 0.104833 1.46355 1.20929
Ar 3.21715 0.461715 -0.0837995
15

Ar -0.743407 2.99605 0.304914
Ar 0.062509 0.297945 -1.66091
Ar 0.739184 3.30489 -0.326229
Ar 2.14908 -1.05702 -0.162008
Ar -1.38022 0.297139 1.8302
Ar 1.73183 2.24433 0.0576948
Ar -0.787583 -1.11979 2.17786
Ar 3.09277 2.05318 -1.57865
Ar 2.48474 -1.29466 1.32777
Ar 0.429747 2.26741 2.95952
Ar 1.83326 -0.0683438 3.15777
Ar 1.16279 2.64263 1.11916
Ar -0.251245 1.0616 2.12209
Ar 0.113952 1.46457 1.1916
Ar 3.22438 0.436324 -0.0852238
15

Ar -0.730321 3.00189 0.313171
Ar 0.0635619 0.293172 -1.67055
Ar 0.736075 3.31178 -0.298588
Ar 2.14321 -1.03622 -0.166785
Ar -1.38782 0.289758 1.82295
Ar 1.72684 2.23784 0.0612334
Ar -0.8075 -1.13455 2.16786
Ar 3.11468 2.07603 -1.57862
Ar 2.50119 -1.30053 1.33223
Ar 0.420482 2.25787 2.96821
Ar 1.82002 -0.0482829 3.16381
Ar 1.15246 2.66236 1.09908
Ar -0.246015 1.03833 2.13484
Ar 0.123292 1.46576 1.17333
Ar 3.23161 0.411038 -0.0866281
15

Ar -0.716907 3.0077 0.321432
Ar 0.0657484 0.285875 -1.67953
Ar 0.732814 3.31884 -0.270868
Ar 2.13829 -1.01384 -0.172161
Ar -1.39559 0.282408 1.81563
Ar 1.72093 2.22935 0.0651501
Ar -0.826879 -1.14665 2.1574
Ar 3.13616 2.09642 -1.57763
Ar 2.51731 -1.30649 1.33644
Ar 0.411314 2.24822 2.97689
Ar 1.80675 -0.0279328 3.16968
Ar 1.14194 2.68218 1.07923
Ar -0.24178 1.0172 2.14729
Ar 0.132812 1.46709 1.1546
Ar 3.23886 0.38587 -0.0880162
15

Ar -0.703197 3.01349 0.329686
Ar 0.0692274 0.275695 -1.68781
Ar 0.729402 3.32605 -0.243088
Ar 2.13413 -0.990174 -0.178027
Ar -1.40353 0.275093 1.80824
Ar 1.71432 2.21918 0.0693442
Ar -0.845754 -1.15548 2.14629
Ar 3.15732 2.11371 -1.57541
Ar 2.53301 -1.31256 1.34031
Ar 0.402258 2.23848 2.98557
Ar 1.79345 -0.00728806 3.17539
Ar 1.13123 2.70208 1.05964
Ar -0.238692 0.99863 2.15934
Ar 0.142478 1.46852 1.13547
Ar 3.24612 0.360831 -0.0893925
15

Ar -0.689221 3.01922 0.337926
Ar 0.0741218 0.262373 -1.69543
Ar 0.725838 3.33342 -0.215268
Ar 2.13059 -0.965516 -0.184283
Ar -1.41164 0.26782 1.80077
Ar 1.70719 2.20759 0.0737257
Ar -0.864223 -1.16051 2.13436
Ar 3.17833 2.12739 -1.57168
Ar 2.54821 -1.31878 1.3437
Ar 0.393329 2.22866 2.99427
Ar 1.78012 0.0136575 3.18092
Ar 1.12036 2.72207 1.04032
Ar -0.236868 0.98291 2.17095
Ar 0.152265 1.47002 1.11601
Ar 3.25338 0.335933 -0.0907622
15

Ar -0.675005 3.02489 0.346147
Ar 0.0804938 0.245801 -1.70244
Ar 0.722127 3.34093 -0.187428
Ar 2.12755 -0.940108 -0.190843
Ar -1.41991 0.260596 1.79325
Ar 1.69969 2.19481 0.0782187
Ar -0.882419 -1.16147 2.12152
Ar 3.19941 2.13719 -1.56623
Ar 2.56279 -1.32518 1.34648
Ar 0.384543 2.21877 3.003
Ar 1.76673 0.0349104 3.18629
Ar 1.10933 2.74216 1.02128
Ar -0.236369 0.970181 2.18215
Ar 0.162151 1.47157 1.09628
Ar 3.26066 0.311193 -0.0921316
15

Ar -0.660577 3.03048 0.354348
Ar 0.0883304 0.226043 -1.70893
Ar 0.718271 3.34859 -0.159595
Ar 2.12491 -0.914155 -0.197634
Ar -1.42833 0.253428 1.78566
Ar 1.69195 2.18104 0.0827623
Ar -0.900456 -1.15838 2.10785
Ar 3.22076 2.14319 -1.55897
Ar 2.57665 -1.33182 1.34847
Ar 0.375919 2.20883 3.01176
Ar 1.7533 0.0564773 3.19147
Ar 1.09816 2.76233 1.00256
Ar -0.237184 0.960399 2.193
Ar 0.172121 1.47315 1.07631
Ar 3.26795 0.286626 -0.0935076
15

Ar -0.645959 3.03598 0.362528
Ar 0.0975474 0.203327 -1.71503
Ar 0.714274 3.35641 -0.131798
Ar 2.12261 -0.887824 -0.204599
Ar -1.43691 0.246323 1.77801
Ar 1.68406 2.16644 0.0873096
Ar -0.918376 -1.15158 2.09359
Ar 3.24253 2.14577 -1.54999
Ar 2.58967 -1.33874 1.34948
Ar 0.367478 2.19885 3.02058
Ar 1.73981 0.0783649 3.19648
Ar 1.08686 2.78259 0.984172
Ar -0.239234 0.953352 2.20356
Ar 0.182162 1.47475 1.05614
Ar 3.27525 0.26225 -0.0948987
15

Ar -0.631175 3.04136 0.370691
Ar 0.108007 0.177998 -1.72084
Ar 0.710141 3.36439 -0.104071
Ar 2.12059 -0.861251 -0.211688
Ar -1.44563 0.23929 1.77031
Ar 1.6761 2.15113 0.0918244
Ar -0.936122 -1.14155 2.07915
Ar 3.26476 2.14548 -1.53947
Ar 2.60173 -1.34605 1.34928
Ar 0.359243 2.18882 3.02946
Ar 1.72625 0.10058 3.20132
Ar 1.07545 2.80291 0.966156
Ar -0.242382 0.94871 2.21394
Ar 0.192264 1.47634 1.0358
Ar 3.28255 0.238086 -0.0963146
15

Ar -0.616246 3.0466 0.37884
Ar 0.119543 0.150462 -1.72647
Ar 0.705874 3.37254 -0.0764537
Ar 2.11882 -0.834546 -0.218864
Ar -1.4545 0.232338 1.76256
Ar 1.6681 2.13522 0.0962781
Ar -0.953566 -1.12881 2.06502
Ar 3.2874 2.14295 -1.52768
Ar 2.61271 -1.35385 1.34763
Ar 0.351243 2.17875 3.03841
Ar 1.71263 0.123128 3.20597
Ar 1.06396 2.8233 0.948541
Ar -0.246463 0.946082 2.22421
Ar 0.202415 1.47793 1.01531
Ar 3.28985 0.214155 -0.0977661
15

Ar -0.601193 3.05169 0.386982
Ar 0.131983 0.121118 -1.73199
Ar 0.701475 3.38089 -0.0489984
Ar 2.11727 -0.807795 -0.226097
Ar -1.4635 0.225477 1.75476
Ar 1.66012 2.11878 0.100654
Ar -0.970547 -1.11378 2.05167
Ar 3.31036 2.13872 -1.51489
Ar 2.62251 -1.36227 1.34432
Ar 0.343511 2.16864 3.04746
Ar 1.69893 0.14601 3.21045
Ar 1.0524 2.84371 0.931364
Ar -0.25131 0.945075 2.23441
Ar 0.21261 1.47949 0.994716
Ar 3.29716 0.190482 -0.0992662
15

Ar -0.586034 3.05661 0.395124
Ar 0.145167 0.0903371 -1.73745
Ar 0.69694 3.38947 -0.0217681
Ar 2.11593 -0.781069 -0.233362
Ar -1.47264 0.218718 1.7469
Ar 1.65218 2.10191 0.104943
Ar -0.986913 -1.0968 2.03953
Ar 3.3335 2.13326 -1.50135
Ar 2.63107 -1.37146 1.33914
Ar 0.336089 2.15851 3.05662
Ar 1.68514 0.169219 3.21475
Ar 1.04082 2.86411 0.914674
Ar -0.256766 0.945327 2.24459
Ar 0.222838 1.48102 0.974032
Ar 3.30446 0.167091 -0.100829
15

Ar -0.57079 3.06132 0.40328
Ar 0.158958 0.0584282 -1.7429
Ar 0.692263 3.39832 0.0051578
Ar 2.11477 -0.754424 -0.240642
Ar -1.48192 0.212073 1.739
Ar 1.64429 2.08464 0.109139
Ar -1.00256 -1.07809 2.02893
Ar 3.35669 2.12694 -1.48729
Ar 2.63836 -1.38155 1.33196
Ar 0.329025 2.14835 3.06593
Ar 1.67127 0.192749 3.21887
Ar 1.02926 2.88446 0.898538
Ar -0.262694 0.946522 2.25476
Ar 0.233094 1.4825 0.953276
Ar 3.31176 0.144009 -0.102471
15

Ar -0.55548 3.06581 0.411462
Ar 0.173241 0.0256438 -1.74835
Ar 0.68743 3.4075 0.0316798
Ar 2.11379 -0.727904 -0.247922
Ar -1.49132 0.205555 1.73105
Ar 1.63649 2.06703 0.113243
Ar -1.01744 -1.05782 2.02006
Ar 3.37977 2.12002 -1.47288
Ar 2.64444 -1.39266 1.32274
Ar 0.322374 2.13818 3.07542
Ar 1.6573 0.216603 3.22282
Ar 1.01777 2.90469 0.883038
Ar -0.268981 0.948397 2.26494
Ar 0.24337 1.48394 0.932462
Ar 3.31904 0.121273 -0.104211
15

Ar -0.540121 3.07004 0.419688
Ar 0.187924 -0.00781387 -1.75383
Ar 0.682416 3.41709 0.0576709
Ar 2.11297 -0.701545 -0.255192
Ar -1.50086 0.199178 1.72306
Ar 1.62876 2.04912 0.117256
Ar -1.03159 -1.03612 2.01297
Ar 3.40262 2.11271 -1.45829
Ar 2.64938 -1.40487 1.31155
Ar 0.316202 2.12799 3.08515
Ar 1.64322 0.240782 3.2266
Ar 1.00642 2.92472 0.868283
Ar -0.275538 0.95074 2.2751
Ar 0.253661 1.48532 0.911604
Ar 3.32631 0.0989159 -0.106068
15

Ar -0.524735 3.07398 0.427978
Ar 0.202936 -0.041786 -1.75933
Ar 0.677183 3.42718 0.0829763
Ar 2.1123 -0.675374 -0.262443
Ar -1.51053 0.192959 1.71501
Ar 1.62113 2.03095 0.121181
Ar -1.04507 -1.01316 2.00759
Ar 3.4251 2.10517 -1.44365
Ar 2.65333 -1.41819 1.29854
Ar 0.310585 2.1178 3.09515
Ar 1.62904 0.265285 3.23021
Ar 0.995288 2.94443 0.854413
Ar -0.282294 0.953389 2.28526
Ar 0.263958 1.48663 0.890716
Ar 3.33355 0.0769731 -0.108064
15

Ar -0.50934 3.07761 0.436355
Ar 0.218218 -0.0761489 -1.76487
Ar 0.671679 3.43791 0.107408
Ar 2.11177 -0.649412 -0.269671
Ar -1.52034 0.186915 1.70692
Ar 1.61359 2.01253 0.125022
Ar -1.05799 -0.989074 2.00379
Ar 3.44708 2.09752 -1.42908
Ar 2.65643 -1.43259 1.28393
Ar 0.305609 2.10761 3.10551
Ar 1.61475 0.290111 3.23365
Ar 0.984482 2.9637 0.841599
Ar -0.289192 0.956201 2.2954
Ar 0.274255 1.48788 0.869809
Ar 3.34076 0.0554751 -0.110224
15

Ar -0.493958 3.0809 0.444844
Ar 0.233728 -0.110807 -1.77044
Ar 0.66583 3.44944 0.130741
Ar 2.11138 -0.623675 -0.276871
Ar -1.53029 0.181067 1.69877
Ar 1.60615 1.99391 0.128782
Ar -1.07046 -0.964048 2.00136
Ar 3.46842 2.08986 -1.41469
Ar 2.65883 -1.448 1.26798
Ar 0.30137 2.09742 3.11627
Ar 1.60035 0.315258 3.23693
Ar 0.974125 2.98234 0.830051
Ar -0.296192 0.959063 2.30549
Ar 0.284545 1.48905 0.848894
Ar 3.34794 0.0344519 -0.112573
15

Ar -0.478612 3.08381 0.453474
Ar 0.249431 -0.145685 -1.77603
Ar 0.659543 3.46198 0.15272
Ar 2.11111 -0.598174 -0.284041
Ar -1.54038 0.175438 1.69056
Ar 1.59881 1.97511 0.132467
Ar -1.08258 -0.938258 2.00009
Ar 3.48899 2.08227 -1.40061
Ar 2.66067 -1.46432 1.25093
Ar 0.297974 2.08724 3.12753
Ar 1.58583 0.340719 3.24006
Ar 0.964361 3.00016 0.820013
Ar -0.303263 0.961876 2.31553
Ar 0.294821 1.49015 0.827984
Ar 3.35506 0.0139322 -0.115139
15

Ar -0.463328 3.08631 0.462276
Ar 0.265301 -0.180727 -1.78166
Ar 0.652711 3.47574 0.173063
Ar 2.11096 -0.572915 -0.291181
Ar -1.55063 0.170054 1.68229
Ar 1.59158 1.95615 0.136079
Ar -1.09442 -0.911883 1.99978
Ar 3.50866 2.07481 -1.38692
Ar 2.66205 -1.48143 1.23303
Ar 0.295533 2.07707 3.13937
Ar 1.57119 0.366489 3.24303
Ar 0.955357 3.01692 0.811752
Ar -0.310382 0.964561 2.32551
Ar 0.305074 1.49116 0.80709
Ar 3.36212 -0.00605763 -0.117949
15

Ar -0.448131 3.08838 0.47128
Ar 0.281319 -0.215887 -1.78731
Ar 0.645217 3.49099 0.191494
Ar 2.11091 -0.547902 -0.29829
Ar -1.56104 0.164945 1.67393
Ar 1.58446 1.93705 0.139622
Ar -1.10606 -0.885091 2.00026
Ar 3.52729 2.06755 -1.37375
Ar 2.66306 -1.49925 1.21447
Ar 0.29416 2.06691 3.15187
Ar 1.55643 0.39256 3.24585
Ar 0.947292 3.03237 0.805533
Ar -0.317534 0.967049 2.3354
Ar 0.315295 1.49208 0.786221
Ar 3.3691 -0.0254943 -0.121033
15

Ar -0.433052 3.08997 0.48052
Ar 0.297468 -0.251133 -1.79297
Ar 0.636947 3.50795 0.207766
Ar 2.11095 -0.523135 -0.30537
Ar -1.57163 0.160144 1.66549
Ar 1.57745 1.91783 0.1431
Ar -1.11753 -0.858041 2.00139
Ar 3.54476 2.06054 -1.3612
Ar 2.66378 -1.51765 1.19541
Ar 0.293967 2.05676 3.16514
Ar 1.54156 0.418922 3.24852
Ar 0.940337 3.04627 0.80159
Ar -0.324708 0.969279 2.34519
Ar 0.325474 1.49291 0.765391
Ar 3.376 -0.0443584 -0.124421
15

Ar -0.418124 3.09106 0.49003
Ar 0.313737 -0.286437 -1.79864
Ar 0.627818 3.52682 0.221695
Ar 2.11107 -0.498611 -0.312422
Ar -1.58242 0.155687 1.65695
Ar 1.57056 1.89852 0.146514
Ar -1.12884 -0.830872 2.00307
Ar 3.56096 2.05381 -1.34937
Ar 2.66425 -1.53657 1.176
Ar 0.295053 2.04662 3.17925
Ar 1.52657 0.445564 3.25105
Ar 0.93464 3.05842 0.800082
Ar -0.331899 0.971202 2.35486
Ar 0.335601 1.49367 0.744612
Ar 3.3828 -0.0626354 -0.12814
15

Ar -0.403384 3.09163 0.499841
Ar 0.330114 -0.321777 -1.80428
Ar 0.617794 3.54775 0.233205
Ar 2.11127 -0.474327 -0.319447
Ar -1.59342 0.151615 1.64828
Ar 1.56381 1.87912 0.149867
Ar -1.14002 -0.803713 2.00521
Ar 3.5758 2.04743 -1.33834
Ar 2.66451 -1.55592 1.15633
Ar 0.2975 2.03648 3.19429
Ar 1.51148 0.472471 3.25344
Ar 0.930297 3.06868 0.801063
Ar -0.339104 0.972774 2.36441
Ar 0.345661 1.49434 0.723896
Ar 3.38947 -0.0803162 -0.132218
15

Ar -0.388864 3.09165 0.509984
Ar 0.346591 -0.357139 -1.80991
Ar 0.606904 3.57077 0.242355
Ar 2.11152 -0.450277 -0.326447
Ar -1.60466 0.147973 1.63947
Ar 1.55721 1.85966 0.15316
Ar -1.15105 -0.776677 2.00777
Ar 3.58922 2.04143 -1.32818
Ar 2.6646 -1.57563 1.13649
Ar 0.301363 2.02635 3.21031
Ar 1.49628 0.499629 3.25569
Ar 0.927339 3.07702 0.804461
Ar -0.346323 0.973956 2.37381
Ar 0.355641 1.49493 0.703258
Ar 3.396 -0.0973979 -0.136681
15

Ar -0.374593 3.09109 0.520488
Ar 0.363159 -0.392509 -1.8155
Ar 0.595243 3.59584 0.249316
Ar 2.11183 -0.426452 -0.333424
Ar -1.61616 0.144806 1.63048
Ar 1.55079 1.84016 0.156396
Ar -1.16192 -0.749869 2.0107
Ar 3.60118 2.03584 -1.31894
Ar 2.66454 -1.59567 1.11654
Ar 0.306665 2.01622 3.22736
Ar 1.48098 0.527019 3.2578
Ar 0.925732 3.0835 0.810097
Ar -0.353558 0.974716 2.38307
Ar 0.365524 1.49543 0.682714
Ar 3.40237 -0.113884 -0.141551
15

Ar -0.360596 3.08996 0.531376
Ar 0.379811 -0.427876 -1.82104
Ar 0.582955 3.62281 0.254337
Ar 2.11217 -0.402842 -0.34038
Ar -1.62796 0.142162 1.62129
Ar 1.54455 1.82063 0.159577
Ar -1.17259 -0.723383 2.01401
Ar 3.61169 2.03071 -1.31065
Ar 2.66434 -1.61598 1.09651
Ar 0.313392 2.00608 3.24544
Ar 1.46558 0.554624 3.25977
Ar 0.925387 3.08828 0.81771
Ar -0.360813 0.975027 2.39216
Ar 0.375291 1.49583 0.662289
Ar 3.40856 -0.129785 -0.14685
15

Ar -0.346896 3.08822 0.542668
Ar 0.396527 -0.463233 -1.82654
Ar 0.570215 3.6515 0.257708
Ar 2.11255 -0.379438 -0.347317
Ar -1.64007 0.140092 1.61186
Ar 1.53852 1.80108 0.162705
Ar -1.18305 -0.697303 2.01767
Ar 3.62081 2.02606 -1.3033
Ar 2.66402 -1.63652 1.07645
Ar 0.321496 1.99594 3.26453
Ar 1.45009 0.582424 3.26161
Ar 0.926181 3.09156 0.827004
Ar -0.368091 0.974865 2.40108
Ar 0.384919 1.49613 0.642011
Ar 3.41454 -0.145119 -0.152593
15

Ar -0.333508 3.08588 0.554378
Ar 0.413296 -0.498572 -1.83198
Ar 0.557203 3.6817 0.259719
Ar 2.11295 -0.356226 -0.354237
Ar -1.65251 0.138641 1.60215
Ar 1.53272 1.78153 0.165784
Ar -1.19324 -0.671705 2.02172
Ar 3.6286 2.02192 -1.29686
Ar 2.6636 -1.65728 1.05638
Ar 0.330896 1.98578 3.28458
Ar 1.43452 0.610397 3.2633
Ar 0.927978 3.09357 0.837679
Ar -0.375398 0.974213 2.40983
Ar 0.394381 1.49631 0.621902
Ar 3.42029 -0.159909 -0.158794
15

Ar -0.320441 3.08295 0.566512
Ar 0.430113 -0.533887 -1.83735
Ar 0.544087 3.71321 0.260639
Ar 2.11336 -0.333197 -0.361141
Ar -1.66533 0.137853 1.59213
Ar 1.52718 1.76201 0.168818
Ar -1.20315 -0.646657 2.02616
Ar 3.63517 2.0183 -1.29128
Ar 2.66309 -1.67823 1.03631
Ar 0.341488 1.97562 3.30552
Ar 1.41887 0.638519 3.26484
Ar 0.930647 3.09451 0.849465
Ar -0.382737 0.973055 2.41839
Ar 0.403652 1.49638 0.60199
Ar 3.42578 -0.174186 -0.165462
15

Ar -0.307699 3.07943 0.579072
Ar 0.446969 -0.569169 -1.84263
Ar 0.531012 3.74584 0.260703
Ar 2.11377 -0.310336 -0.36803
Ar -1.67856 0.137767 1.58174
Ar 1.52194 1.74252 0.171811
Ar -1.21272 -0.622214 2.03102
Ar 3.64062 2.01524 -1.28648
Ar 2.66248 -1.69934 1.01627
Ar 0.353151 1.96545 3.32724
Ar 1.40317 0.666764 3.26623
Ar 0.934072 3.09459 0.862122
Ar -0.390114 0.971383 2.42678
Ar 0.412701 1.49631 0.582305
Ar 3.43098 -0.187987 -0.172604
15

Ar -0.295277 3.07534 0.592051
Ar 0.46386 -0.604414 -1.84781
Ar 0.518095 3.77943 0.260108
Ar 2.11419 -0.287633 -0.374905
Ar -1.69221 0.138411 1.57095
Ar 1.51702 1.72308 0.174771
Ar -1.22192 -0.59842 2.03633
Ar 3.64507 2.01273 -1.28239
Ar 2.6618 -1.72061 0.996251
Ar 0.365752 1.9553 3.34965
Ar 1.38742 0.695106 3.26745
Ar 0.938154 3.09398 0.875454
Ar -0.397534 0.969189 2.43498
Ar 0.421494 1.49611 0.562885
Ar 3.43586 -0.201354 -0.18022
15

Ar -0.283169 3.0707 0.605435
Ar 0.480779 -0.639618 -1.85288
Ar 0.505427 3.81383 0.259018
Ar 2.11459 -0.265081 -0.381766
Ar -1.70634 0.139803 1.55971
Ar 1.51249 1.70374 0.177709
Ar -1.23072 -0.575307 2.04212
Ar 3.64865 2.01079 -1.27892
Ar 2.66106 -1.742 0.976268
Ar 0.379161 1.94518 3.3726
Ar 1.37163 0.723514 3.26848
Ar 0.942815 3.09281 0.889299
Ar -0.404999 0.966472 2.443
Ar 0.429993 1.49575 0.543774
Ar 3.44041 -0.214334 -0.188309
15

Ar -0.271361 3.06556 0.619206
Ar 0.497718 -0.674778 -1.85781
Ar 0.493069 3.84893 0.257566
Ar 2.11498 -0.242677 -0.388616
Ar -1.72094 0.141948 1.54801
Ar 1.50838 1.68451 0.180639
Ar -1.23909 -0.55289 2.0484
Ar 3.65148 2.0094 -1.27598
Ar 2.66025 -1.76352 0.956324
Ar 0.393247 1.93512 3.39597
Ar 1.35581 0.751956 3.26932
Ar 0.947994 3.09121 0.903524
Ar -0.412514 0.963234 2.45083
Ar 0.438157 1.49522 0.525024
Ar 3.44461 -0.226976 -0.196866
15

Ar -0.259842 3.05994 0.63334
Ar 0.514672 -0.709892 -1.86259
Ar 0.481064 3.88463 0.25586
Ar 2.11534 -0.220413 -0.395452
Ar -1.73604 0.144841 1.5358
Ar 1.50475 1.6654 0.183579
Ar -1.24702 -0.531171 2.0552
Ar 3.65364 2.00858 -1.2735
Ar 2.65939 -1.78514 0.936422
Ar 0.407885 1.92514 3.41963
Ar 1.33998 0.780397 3.26993
Ar 0.953645 3.08927 0.918021
Ar -0.420081 0.959481 2.45849
Ar 0.445941 1.49451 0.506698
Ar 3.44844 -0.239335 -0.205882
15

Ar -0.248597 3.0539 0.64781
Ar 0.531633 -0.744957 -1.86719
Ar 0.469432 3.92086 0.25399
Ar 2.11569 -0.198277 -0.402277
Ar -1.75164 0.148459 1.52307
Ar 1.50166 1.64645 0.186552
Ar -1.25449 -0.510137 2.06254
Ar 3.65525 2.0083 -1.27141
Ar 2.65849 -1.80686 0.916563
Ar 0.422961 1.9153 3.44341
Ar 1.32415 0.8088 3.27029
Ar 0.959735 3.08705 0.9327
Ar -0.427703 0.955221 2.46598
Ar 0.453297 1.49359 0.488874
Ar 3.45191 -0.251461 -0.215345
15

Ar -0.237615 3.04747 0.662586
Ar 0.548594 -0.779974 -1.8716
Ar 0.458179 3.95754 0.252028
Ar 2.116 -0.176258 -0.40909
Ar -1.76774 0.152773 1.50981
Ar 1.49919 1.62765 0.189585
Ar -1.26151 -0.489762 2.0704
Ar 3.65637 2.00855 -1.26964
Ar 2.65756 -1.82866 0.896749
Ar 0.438366 1.90567 3.46716
Ar 1.30833 0.837125 3.27037
Ar 0.966242 3.08462 0.947485
Ar -0.435381 0.950468 2.4733
Ar 0.460172 1.49245 0.471646
Ar 3.45501 -0.263409 -0.225238
15

Ar -0.226884 3.0407 0.677637
Ar 0.565547 -0.814941 -1.87579
Ar 0.447299 3.99459 0.250029
Ar 2.11628 -0.154348 -0.41589
Ar -1.78431 0.157738 1.49603
Ar 1.49739 1.60903 0.192711
Ar -1.26808 -0.470014 2.07877
Ar 3.65708 2.00933 -1.26814
Ar 2.6566 -1.85054 0.876981
Ar 0.454 1.89631 3.49072
Ar 1.29254 0.865329 3.27013
Ar 0.973149 3.08201 0.962309
Ar -0.443115 0.945237 2.48045
Ar 0.466512 1.49105 0.455136
Ar 3.45776 -0.275227 -0.235542
15

Ar -0.216398 3.03363 0.692933
Ar 0.582486 -0.84986 -1.87973
Ar 0.436771 0.0319661 0.24804
Ar 2.11652 -0.132537 -0.422676
Ar -1.80134 0.163293 1.48174
Ar 1.49635 1.59058 0.195968
Ar -1.27422 -0.450847 2.08766
Ar 3.65744 2.01061 -1.26687
Ar 2.65563 -1.87248 0.857259
Ar 0.46977 1.88732 3.51388
Ar 1.27679 0.893365 3.26953
Ar 0.980446 3.07928 0.977111
Ar -0.450906 0.939547 2.48744
Ar 0.472263 1.48934 0.439491
Ar 3.46017 -0.286962 -0.246234
15

Ar -0.206152 3.02631 0.708443
Ar 0.599401 -0.884735 -1.88338
Ar 0.42657 0.0696029 0.246094
Ar 2.11672 -0.110817 -0.429447
Ar -1.81879 0.169383 1.46696
Ar 1.49613 1.57232 0.199399
Ar -1.27995 -0.432215 2.09701
Ar 3.6575 2.01237 -1.26578
Ar 2.65465 -1.89445 0.837583
Ar 0.485592 1.87882 3.53645
Ar 1.26111 0.921185 3.2685
Ar 0.988131 3.07644 0.991836
Ar -0.458754 0.933419 2.49427
Ar 0.477367 1.48728 0.424883
Ar 3.46226 -0.298654 -0.257288
15

Ar -0.196142 3.01876 0.724139
Ar 0.616286 -0.91957 -1.88671
Ar 0.416662 0.107447 0.244218
Ar 2.11688 -0.0891851 -0.436203
Ar -1.83664 0.175951 1.45173
Ar 1.49681 1.55425 0.203051
Ar -1.28531 -0.414068 2.10681
Ar 3.65729 2.01459 -1.26484
Ar 2.65367 -1.91646 0.817953
Ar 0.501391 1.87094 3.55818
Ar 1.24551 0.948738 3.26701
Ar 0.9962 3.07353 1.00643
Ar -0.466657 0.926875 2.50095
Ar 0.481767 1.48478 0.411517
Ar 3.46406 -0.31034 -0.268676
15

Ar -0.186369 3.01104 0.739994
Ar 0.633132 -0.954373 -1.8897
Ar 0.407009 0.145439 0.242428
Ar 2.117 -0.0676351 -0.442941
Ar -1.85485 0.182945 1.43607
Ar 1.49845 1.53635 0.206973
Ar -1.29033 -0.396358 2.11701
Ar 3.65685 2.01725 -1.26403
Ar 2.65271 -1.93849 0.798368
Ar 0.5171 1.86387 3.5788
Ar 1.23003 0.975971 3.26498
Ar 1.00466 3.07057 1.02085
Ar -0.474613 0.919942 2.50748
Ar 0.485404 1.48178 0.399636
Ar 3.46561 -0.32205 -0.280368
15

Ar -0.176833 3.00315 0.755973
Ar 0.649932 -0.989153 -1.8923
Ar 0.39757 0.183518 0.240735
Ar 2.11707 -0.0461614 -0.449659
Ar -1.87338 0.190312 1.42002
Ar 1.5011 1.51863 0.211214
Ar -1.29503 -0.379039 2.12757
Ar 3.6562 2.02032 -1.26332
Ar 2.65177 -1.96054 0.77883
Ar 0.532664 1.85779 3.59804
Ar 1.21469 1.00283 3.26235
Ar 1.0135 3.06759 1.03503
Ar -0.482619 0.912645 2.51388
Ar 0.488218 1.47816 0.389513
Ar 3.46693 -0.333805 -0.292334
15

Ar -0.167537 2.99515 0.772052
Ar 0.666675 -1.02392 -1.89448
Ar 0.388302 0.221616 0.239146
Ar 2.11709 -0.024759 -0.456356
Ar -1.89218 0.198006 1.40362
Ar 1.50481 1.50105 0.215819
Ar -1.29947 -0.362068 2.13845
Ar 3.65536 2.02378 -1.26268
Ar 2.65087 -1.98259 0.759339
Ar 0.548041 1.85294 3.61559
Ar 1.19953 1.02925 3.25905
Ar 1.02274 3.0646 1.04894
Ar -0.490671 0.905011 2.52016
Ar 0.490147 1.47381 0.38144
Ar 3.46805 -0.345625 -0.304542
15

Ar -0.158483 2.98704 0.788208
Ar 0.683354 -1.05868 -1.8962
Ar 0.379162 0.259658 0.23766
Ar 2.11707 -0.00342356 -0.463029
Ar -1.91124 0.205983 1.38692
Ar 1.50962 1.48359 0.220829
Ar -1.30366 -0.345409 2.1496
Ar 3.65435 2.0276 -1.26212
Ar 2.65002 1.99537 0.739895
Ar 0.563208 1.84957 3.63119
Ar 1.1846 1.05517 3.255
Ar 1.03238 3.06162 1.06253
Ar -0.498765 0.897069 2.52631
Ar 0.491129 1.46861 0.375705
Ar 3.46902 -0.357521 -0.316963
15

Ar -0.149676 2.97885 0.804425
Ar 0.699959 -1.09346 -1.89744
Ar 0.370105 0.29756 0.236276
Ar 2.117 0.0178439 -0.469676
Ar -1.9305 0.214202 1.36994
Ar 1.51552 1.46623 0.226271
Ar -1.30764 -0.329027 2.16099
Ar 3.65317 2.03176 -1.26161
Ar 2.64924 1.97334 0.720505
Ar 0.578149 1.84792 3.64462
Ar 1.16995 1.08052 3.25013
Ar 1.04243 3.05869 1.07576
Ar -0.506893 0.888848 2.53236
Ar 0.491107 1.46247 0.372558
Ar 3.46986 -0.369503 -0.329566
15

Ar -0.141119 2.97061 0.820687
Ar 0.716473 -1.12826 -1.89815
Ar 0.361088 0.335223 0.234987
Ar 2.11689 0.0390421 -0.476294
Ar -1.94994 0.222631 1.35273
Ar 1.5225 1.44893 0.232165
Ar -1.31143 -0.312897 2.17256
Ar 3.65184 2.03622 -1.26116
Ar 2.64854 1.95135 0.701179
Ar 0.592863 1.8482 3.65574
Ar 1.15562 1.10524 3.24438
Ar 1.05288 3.05583 1.08859
Ar -0.515047 0.880375 2.53829
Ar 0.490032 1.45533 0.372173
Ar 3.47059 -0.381575 -0.342324
15

Ar -0.132815 2.96231 0.836979
Ar 0.73289 -1.16312 -1.89832
Ar 0.352064 0.372529 0.23378
Ar 2.11672 0.06017 -0.482882
Ar -1.96953 0.231238 1.33533
Ar 1.53054 1.43166 0.238515
Ar -1.31505 -0.296995 2.18427
Ar 3.65035 2.04098 -1.26078
Ar 2.64793 1.9294 0.681918
Ar 0.607346 1.85062 3.66454
Ar 1.14169 1.12926 3.23766
Ar 1.06373 3.05305 1.101
Ar -0.523222 0.871675 2.54413
Ar 0.487876 1.44721 0.37462
Ar 3.47125 -0.393739 -0.355211
15

Ar -0.124767 2.95399 0.853291
Ar 0.749211 -1.19804 -1.89794
Ar 0.342985 0.409337 0.232637
Ar 2.11652 0.0812271 -0.489436
Ar -1.98924 0.239996 1.31777
Ar 1.53958 1.41439 0.24531
Ar -1.31854 -0.281305 2.1961
Ar 3.64871 2.04601 -1.26044
Ar 2.64744 1.90749 0.662726
Ar 0.621587 1.85528 3.67116
Ar 1.1282 1.15252 3.22991
Ar 1.075 3.05038 1.11294
Ar -0.53141 0.862774 2.54987
Ar 0.484642 1.4382 0.379852
Ar 3.47185 -0.405996 -0.368201
15

Ar -0.116977 2.94564 0.869612
Ar 0.765438 -1.23305 -1.89699
Ar 0.333798 0.445473 0.23153
Ar 2.11626 0.102214 -0.495956
Ar 1.99096 0.248881 1.30007
Ar 1.54956 1.39708 0.252528
Ar -1.32193 -0.265813 2.20799
Ar 3.64693 2.05129 -1.26015
Ar 2.64708 1.88566 0.643604
Ar 0.635564 1.86224 3.67584
Ar 1.11523 1.17493 3.22106
Ar 1.08667 3.04784 1.12442
Ar -0.539601 0.853703 2.55552
Ar 0.480373 1.42851 0.387721
Ar 3.47241 -0.418343 -0.381273
15

Ar -0.109445 2.93729 0.885934
Ar 0.781575 -1.26818 -1.89546
Ar 0.324443 0.480722 0.230418
Ar 2.11596 0.123129 -0.502439
Ar 1.97109 0.257872 1.28228
Ar 1.56039 1.37972 0.260136
Ar -1.32522 -0.25051 2.21993
Ar 3.64499 2.05679 -1.25991
Ar 2.64687 1.8639 0.624555
Ar 0.649242 1.8715 3.67893
Ar 1.10283 1.19643 3.21106
Ar 1.09874 3.04546 1.13542
Ar -0.547788 0.84449 2.56109
Ar 0.475152 1.41842 0.398013
Ar 3.47296 -0.430779 -0.394404
15

Ar -0.102173 2.92893 0.90225
Ar 0.797628 -1.30344 -1.89337
Ar 0.314848 0.514814 0.229237
Ar 2.11562 0.143971 -0.508883
Ar 1.95116 0.266948 1.26441
Ar 1.57196 1.36228 0.268094
Ar -1.32846 -0.235393 2.23187
Ar 3.6429 2.0625 -1.25972
Ar 2.64684 1.84223 0.605583
Ar 0.66257 1.88302 3.68079
Ar 1.09104 1.21695 3.19986
Ar 1.1112 3.04324 1.14593
Ar -0.555958 0.835166 2.56659
Ar 0.469103 1.40833 0.410493
Ar 3.47349 -0.443301 -0.407577
15

Ar -0.0951591 2.92057 0.918555
Ar 0.813607 -1.33884 -1.89073
Ar 0.30493 0.547423 0.227898
Ar 2.11523 0.164738 -0.515286
Ar 1.9312 0.27609 1.2465
Ar 1.58418 1.34475 0.276355
Ar -1.33166 -0.22046 2.24378
Ar 3.64065 2.06841 -1.25958
Ar 2.64703 1.82066 0.586691
Ar 0.675505 1.89672 3.6818
Ar 1.0799 1.23644 3.18741
Ar 1.12404 3.04121 1.15596
Ar -0.5641 0.825759 2.57201
Ar 0.462383 1.39868 0.42495
Ar 3.47403 -0.455904 -0.420773
15

Ar -0.0884023 2.91223 0.934844
Ar 0.829522 -1.3744 -1.88757
Ar 0.294587 0.578154 0.226272
Ar 2.1148 0.185428 -0.521647
Ar 1.91123 0.285279 1.22857
Ar 1.59694 1.32713 0.28487
Ar -1.33484 -0.205714 2.25564
Ar 3.63825 2.07448 -1.25948
Ar 2.64745 1.79922 0.567881
Ar 0.688022 1.9125 3.68232
Ar 1.06941 1.25484 3.1737
Ar 1.13725 3.03938 1.16553
Ar -0.572201 0.8163 2.57736
Ar 0.455177 1.39001 0.441233
Ar 3.47458 -0.468587 -0.433978
15

Ar -0.0819036 2.9039 0.951116
Ar 0.845386 -1.41014 -1.88391
Ar 0.283699 0.60657 0.224182
Ar 2.11432 0.206037 -0.527965
Ar 1.89125 0.294493 1.21065
Ar 1.61011 1.30941 0.293589
Ar -1.33802 -0.191162 2.26741
Ar 3.63568 2.08071 -1.25942
Ar 2.64815 1.77792 0.549162
Ar 0.700113 1.93027 3.68262
Ar 1.05956 1.27215 3.15872
Ar 1.15081 3.03774 1.17467
Ar -0.580244 0.806819 2.58264
Ar 0.447692 1.38288 0.45927
Ar 3.47516 -0.481345 -0.447175
15

Ar -0.0756631 2.8956 0.967367
Ar 0.86121 -1.44604 -1.8798
Ar 0.272136 0.632217 0.221404
Ar 2.1138 0.226561 -0.534239
Ar 1.87129 0.303711 1.19277
Ar 1.62359 1.29159 0.302463
Ar -1.34122 -0.176816 2.27906
Ar 3.63296 2.08709 -1.25942
Ar 2.64914 1.75678 0.530539
Ar 0.711791 1.94988 3.68294
Ar 1.05033 1.28835 3.14251
Ar 1.16471 3.03631 1.18338
Ar -0.588213 0.797346 2.58786
Ar 0.440143 1.37784 0.479071
Ar 3.47575 -0.494175 -0.460353
15

Ar -0.0696766 2.88732 0.983598
Ar 0.877009 -1.48211 -1.87528
Ar 0.259767 0.654702 0.217686
Ar 2.11324 0.246995 -0.540469
Ar 1.85136 0.312908 1.17495
Ar 1.63727 1.27369 0.311445
Ar -1.34447 -0.162686 2.29058
Ar 3.63007 2.09359 -1.25946
Ar 2.65048 1.73582 0.51201
Ar 0.723088 1.97121 3.68344
Ar 1.04168 1.30348 3.1251
Ar 1.17893 3.03508 1.19171
Ar -0.596089 0.787911 2.59302
Ar 0.43274 1.3754 0.500714
Ar 3.47638 -0.507074 -0.4735
15

Ar -0.0639392 2.87908 0.999807
Ar 0.892796 -1.51834 -1.87038
Ar 0.246487 0.673772 0.21278
Ar 2.11262 0.267337 -0.546655
Ar 1.83147 0.322056 1.15724
Ar 1.65103 1.25573 0.32049
Ar -1.34779 -0.148788 2.30194
Ar 3.62702 2.10021 -1.25955
Ar 2.65219 1.71507 0.493577
Ar 0.734051 1.9941 3.68425
Ar 1.03353 1.3176 3.10656
Ar 1.19345 3.03405 1.19968
Ar -0.603852 0.778546 2.59812
Ar 0.425664 1.37587 0.524303
Ar 3.47704 -0.520038 -0.486603
15

Ar -0.0584455 2.87088 1.016
Ar 0.908584 -1.55472 -1.86517
Ar 0.232236 0.689383 0.206494
Ar 2.11196 0.28758 -0.552799
Ar 1.81162 0.33112 1.13966
Ar 1.66478 1.23771 0.329552
Ar -1.3512 -0.135139 2.3131
Ar 3.62381 2.10692 -1.25969
Ar 2.6543 1.69455 0.475236
Ar 0.744734 2.0184 3.68541
Ar 1.02584 1.33075 3.08699
Ar 1.20826 3.03321 1.20733
Ar -0.611477 0.769284 2.60317
Ar 0.41904 1.37938 0.549913
Ar 3.47774 -0.533063 -0.499654
15

Ar -0.0531899 2.86271 1.03217
Ar 0.924385 -1.59123 -1.85969
Ar 0.217016 0.701718 0.198729
Ar 2.11125 0.30772 -0.558903
Ar 1.79182 0.340057 1.12226
Ar 1.6784 1.21968 0.338587
Ar -1.35472 -0.121759 2.32406
Ar 3.62043 2.11373 -1.25989
Ar 2.65687 1.67428 0.456983
Ar 0.755192 2.04396 3.68698
Ar 1.01853 1.34303 3.06649
Ar 1.22332 3.03255 1.2147
Ar -0.61894 0.760157 2.60818
Ar 0.412928 1.3858 0.577544
Ar 3.47847 -0.546147 -0.512643
15

Ar -0.0481661 2.8546 1.04832
Ar 0.940212 -1.62785 -1.854
Ar 0.200889 0.711144 0.189504
Ar 2.11049 0.327753 -0.56497
Ar 1.77207 0.348818 1.10508
Ar 1.69181 1.20166 0.34755
Ar -1.35838 -0.108671 2.33478
Ar 3.6169 2.12061 -1.26014
Ar 2.65993 1.65429 0.438813
Ar 0.76548 2.07063 3.68893
Ar 1.01155 1.3545 3.04518
Ar 1.23864 3.03205 1.22181
Ar -0.626213 0.751199 2.61315
Ar 0.407323 1.39481 0.607098
Ar 3.47924 -0.559286 -0.525562
15

Ar -0.0433679 2.84654 1.06446
Ar 0.956074 -1.66454 -1.84816
Ar 0.183957 0.718129 0.178935
Ar 2.10967 0.347675 -0.571004
Ar 1.75238 0.35734 1.08818
Ar 1.70492 1.18372 0.356393
Ar -1.36221 -0.0959003 2.34524
Ar 3.61321 2.12756 -1.26045
Ar 2.66351 1.63459 0.420717
Ar 0.775647 2.09825 3.69127
Ar 1.00484 1.36523 3.02318
Ar 1.25418 3.0317 1.22871
Ar -0.633266 0.742446 2.61809
Ar 0.402172 1.40598 0.638391
Ar 3.48005 -0.572475 -0.538403
15

Ar -0.0387892 2.83854 1.08059
Ar 0.971981 -1.70125 -1.84222
Ar 0.166346 0.723156 0.1672
Ar 2.10879 0.367479 -0.577008
Ar 1.73273 0.365541 1.07164
Ar 1.71766 1.1659 0.365062
Ar -1.36623 -0.0834742 2.35541
Ar 3.60936 2.13457 -1.26082
Ar 2.66766 1.61522 0.402686
Ar 0.785734 2.12671 3.69395
Ar 0.99835 1.37529 3.00061
Ar 1.26995 3.0315 1.23541
Ar -0.640065 0.733932 2.62302
Ar 0.397395 1.41885 0.67118
Ar 3.4809 -0.585709 -0.551158
15

Ar -0.0344236 2.8306 1.0967
Ar 0.987944 -1.73795 -1.83626
Ar 0.148183 0.726665 0.154502
Ar 2.10784 0.387161 -0.582988
Ar 1.71312 0.373329 1.05552
Ar 1.72998 1.14831 0.373496
Ar -1.37047 -0.0714231 2.36527
Ar 3.60536 2.14162 -1.26125
Ar 2.6724 1.5962 0.384707
Ar 0.795777 2.15587 3.69696
Ar 0.992038 1.38471 2.9776
Ar 1.28591 3.03142 1.24196
Ar -0.646577 0.725693 2.62794
Ar 0.392907 1.43303 0.705218
Ar 3.48179 -0.598979 -0.563821
15

Ar -0.0302654 2.82275 1.1128
Ar 1.00397 -1.77455 -1.83036
Ar 0.129581 0.72902 0.141037
Ar 2.10682 0.406719 -0.588951
Ar 1.69352 0.380597 1.03993
Ar 1.74182 1.13102 0.381623
Ar -1.37497 -0.0597786 2.37481
Ar 3.60121 2.14869 -1.26175
Ar 2.67777 1.57754 0.366767
Ar 0.805802 2.18564 3.70025
Ar 0.985868 1.39352 2.95428
Ar 1.30206 3.03144 1.24836
Ar -0.652764 0.717765 2.63285
Ar 0.388633 1.44814 0.740268
Ar 3.48271 -0.612276 -0.576385
15

Ar -0.0263088 2.81498 1.1289
Ar 1.02008 -1.81099 -1.82459
Ar 0.110638 0.730507 0.126981
Ar 2.10572 0.426152 -0.594901
Ar 1.6739 0.387217 1.02497
Ar 1.75317 1.11418 0.389362
Ar -1.37975 -0.0485737 2.38398
Ar 3.59692 2.15579 -1.26231
Ar 2.68378 1.55927 0.348855
Ar 0.81583 2.21593 3.7038
Ar 0.979808 1.40171 2.93081
Ar 1.3184 3.03157 1.25466
Ar -0.658587 0.710183 2.63777
Ar 0.384509 1.46393 0.776116
Ar 3.48367 -0.62559 -0.588845
15

Ar -0.0225485 2.80732 1.14499
Ar 1.03628 -1.84716 -1.81909
Ar 0.0914394 0.731346 0.112478
Ar 2.10452 0.445461 -0.600847
Ar 1.65422 0.393045 1.01076
Ar 1.76403 1.0979 0.396617
Ar -1.38485 -0.0378424 2.39278
Ar 3.59248 2.16288 -1.26293
Ar 2.69046 1.5414 0.330959
Ar 0.825879 2.24666 3.70757
Ar 0.973822 1.40924 2.90732
Ar 1.33489 3.03177 1.26086
Ar -0.664006 0.702982 2.6427
Ar 0.380486 1.48017 0.812581
Ar 3.48466 -0.638909 -0.601193
15

Ar -0.01898 2.79976 1.16108
Ar 1.0526 -1.88293 -1.81399
Ar 0.0720641 0.731698 0.0976438
Ar 2.10321 0.464647 -0.606795
Ar 1.63441 0.397922 0.997435
Ar 1.77442 1.08236 0.403285
Ar -1.39031 -0.0276183 2.40117
Ar 3.58791 2.16997 -1.26362
Ar 2.69782 1.52394 0.313064
Ar 0.835959 2.27776 3.71154
Ar 0.967871 1.41602 2.88402
Ar 1.35155 3.03205 1.26699
Ar -0.668978 0.696195 2.64764
Ar 0.376526 1.4967 0.849521
Ar 3.48569 -0.652224 -0.613423
15

Ar -0.0155992 2.79233 1.17717
Ar 1.0691 -1.91811 -1.80947
Ar 0.0525664 0.731681 0.0825726
Ar 2.10178 0.483713 -0.612754
Ar 1.61438 0.401685 0.985134
Ar 1.78441 1.06772 0.409257
Ar -1.39616 -0.0179342 2.40913
Ar 3.58322 2.17703 -1.26438
Ar 2.70586 1.5069 0.295159
Ar 0.84608 2.30917 3.71567
Ar 0.961905 1.42194 2.86111
Ar 1.36835 3.03239 1.27305
Ar -0.673463 0.68985 2.6526
Ar 0.372605 1.51342 0.886817
Ar 3.48674 -0.665523 -0.62553
15

Ar -0.0124029 2.78505 1.19327
Ar 1.08582 -1.9525 -1.80576
Ar 0.0329908 0.73138 0.0673371
Ar 2.1002 0.502662 -0.618731
Ar 1.59404 0.404172 0.973989
Ar 1.79408 1.05413 0.414431
Ar -1.40242 -0.00882095 2.41664
Ar 3.5784 2.18404 -1.26522
Ar 2.71458 1.49029 0.277233
Ar 0.856247 2.34086 3.71995
Ar 0.95585 1.42681 2.83889
Ar 1.38529 3.03278 1.27907
Ar -0.67742 0.683976 2.65759
Ar 0.368701 1.53021 0.924359
Ar 3.48782 -0.67879 -0.637505
15

Ar -0.00938886 2.77793 1.20937
Ar 1.10288 -1.98581 -1.80317
Ar 0.0133753 0.730858 0.0519947
Ar 2.09848 0.521499 -0.624734
Ar 1.57327 0.405243 0.96411
Ar 1.80351 1.04176 0.418727
Ar -1.40913 -0.00030641 2.42369
Ar 3.57346 2.19099 -1.26615
Ar 2.72398 1.47412 0.259278
Ar 0.866465 2.37279 3.72435
Ar 0.949602 1.43039 2.8177
Ar 1.40237 3.03321 1.28505
Ar -0.680813 0.678594 2.6626
Ar 0.364803 1.547 0.962067
Ar 3.48891 -0.69201 -0.649342
15

Ar -0.00655602 2.77099 1.22548
Ar 1.12042 1.98228 -1.80205
Ar -0.00624691 0.730158 0.0365909
Ar 2.09659 0.54023 -0.630773
Ar 1.55195 0.404794 0.955579
Ar 1.81284 1.03071 0.422086
Ar -1.41632 0.00758422 2.43025
Ar 3.56841 2.19786 -1.26717
Ar 2.73404 1.45838 0.241288
Ar 0.876738 2.40491 3.72886
Ar 0.943011 1.43239 2.79791
Ar 1.41958 3.03367 1.29101
Ar -0.683608 0.67372 2.66764
Ar 0.360899 1.56374 0.999877
Ar 3.49003 -0.705164 -0.661032
15

Ar -0.00390442 2.76427 1.2416
Ar 1.13866 1.95212 -1.80282
Ar -0.0258454 0.729311 0.0211623
Ar 2.09452 0.55886 -0.636856
Ar 1.52998 0.402772 0.948431
Ar 1.82216 1.02105 0.424496
Ar -1.42401 0.0148272 2.4363
Ar 3.56325 2.20462 -1.26828
Ar 2.74475 1.44309 0.223262
Ar 0.887066 2.43721 3.73346
Ar 0.935875 1.43249 2.77998
Ar 1.4369 3.03414 1.29694
Ar -0.685778 0.669367 2.6727
Ar 0.356983 1.58036 1.03774
Ar 3.49116 -0.71823 -0.672566
15

Ar -0.00143549 2.75779 1.25772
Ar 1.15783 1.92404 -1.80588
Ar -0.0453914 0.728338 0.0057389
Ar 2.09227 0.577398 -0.642993
Ar 1.50726 0.399186 0.942653
Ar 1.83157 1.0128 0.425989
Ar -1.4322 0.0214082 2.44185
Ar 3.55799 2.21124 -1.26951
Ar 2.75609 1.42823 0.2052
Ar 0.897452 2.46965 3.73812
Ar 0.927943 1.43038 2.76434
Ar 1.45435 3.03462 1.30287
Ar -0.6873 0.665536 2.67779
Ar 0.353051 1.59682 1.0756
Ar 3.49231 -0.731184 -0.683933
15

Ar 0.000847862 2.75158 1.27385
Ar 1.17822 1.89829 -1.81157
Ar -0.0648562 0.727251 -0.00965391
Ar 2.0898 0.595849 -0.649193
Ar 1.48373 0.394098 0.938179
Ar 1.84112 1.00591 0.426647
Ar -1.44092 0.0273192 2.44687
Ar 3.55263 2.21771 -1.27086
Ar 2.76805 1.41382 0.187104
Ar 0.907896 2.50221 3.74284
Ar 0.918941 1.42584 2.75135
Ar 1.47191 3.03509 1.30879
Ar -0.688161 0.662225 2.68289
Ar 0.349097 1.61306 1.11342
Ar 3.49346 -0.743998 -0.695122
15

Ar 0.00294118 2.74568 1.28999
Ar 1.20008 1.87496 -1.82007
Ar -0.0842104 0.726055 -0.0249941
Ar 2.08712 0.614222 -0.655466
Ar 1.45938 0.387617 0.934907
Ar 1.85086 1.00028 0.426589
Ar -1.45017 0.0325582 2.45138
Ar 3.54718 2.22398 -1.27234
Ar 2.7806 1.39986 0.168985
Ar 0.918398 2.53488 3.7476
Ar 0.908626 1.41878 2.74123
Ar 1.48958 3.03554 1.31471
Ar -0.688354 0.659425 2.68799
Ar 0.34512 1.62905 1.15116
Ar 3.49462 -0.756642 -0.706117
15

Ar 0.00483845 2.74013 1.30612
Ar 1.22358 1.85397 -1.83135
Ar -0.103423 0.724752 -0.0402617
Ar 2.0842 0.632523 -0.661825
Ar 1.4342 0.379888 0.932706
Ar 1.86077 0.995779 0.42596
Ar -1.45993 0.0371292 2.45536
Ar 3.54163 2.23003 -1.27397
Ar 2.79372 1.38635 0.15085
Ar 0.928957 2.56764 3.7524
Ar 0.896839 1.40932 2.73396
Ar 1.50737 3.03599 1.32062
Ar -0.687882 0.657118 2.69308
Ar 0.341116 1.64472 1.18879
Ar 3.49578 -0.769083 -0.716895
15

Ar 0.00653236 2.73499 1.32223
Ar 1.24878 1.83505 -1.84517
Ar -0.122459 0.723335 -0.0554383
Ar 2.08104 0.650761 -0.668281
Ar 1.40824 0.371073 0.931431
Ar 1.87083 0.992266 0.424916
Ar -1.47021 0.0410415 2.45882
Ar 3.536 2.23581 -1.27577
Ar 2.80739 1.3733 0.132712
Ar 0.939574 2.60048 3.75722
Ar 0.883542 1.3977 2.72933
Ar 1.52526 3.03641 1.32654
Ar -0.686755 0.655281 2.69814
Ar 0.337083 1.66004 1.22629
Ar 3.49693 -0.78128 -0.727427
15

Ar 0.00801414 2.73029 1.33831
Ar 1.27559 1.81787 -1.86116
Ar -0.141275 0.721794 -0.070506
Ar 2.07762 0.668946 -0.674845
Ar 1.38154 0.361335 0.930938
Ar 1.88099 0.989588 0.423612
Ar -1.48098 0.0443091 2.46177
Ar 3.53029 2.24129 -1.27774
Ar 2.82156 1.36071 0.114584
Ar 0.950246 2.63339 3.76205
Ar 0.868816 1.38429 2.727
Ar 1.54326 3.0368 1.33246
Ar -0.684992 0.653886 2.70314
Ar 0.333019 1.67494 1.26362
Ar 3.49808 -0.793194 -0.737693
15

Ar 0.00927368 2.72609 1.35436
Ar 1.30387 1.80206 -1.87888
Ar -0.159813 0.720113 -0.0854475
Ar 2.07392 0.687085 -0.681526
Ar 1.35418 0.350829 0.931093
Ar 1.89118 0.987605 0.422191
Ar -1.49222 0.0469505 2.46421
Ar 3.52449 2.24643 -1.27991
Ar 2.83619 1.3486 0.0964795
Ar 0.960974 2.66635 3.76689
Ar 0.85283 1.36946 2.72653
Ar 1.56135 3.03717 1.33839
Ar -0.68262 0.652902 2.70807
Ar 0.328924 1.68938 1.30077
Ar 3.49923 -0.804779 -0.747669
15

Ar 0.0102997 2.72245 1.37036
Ar 1.33343 1.78728 -1.89792
Ar -0.178022 0.718269 -0.100246
Ar 2.06994 0.705189 -0.688336
Ar 1.32623 0.339696 0.931775
Ar 1.90133 0.986189 0.420781
Ar -1.5039 0.0489868 2.46615
Ar 3.51862 2.25117 -1.28231
Ar 2.85125 1.33699 0.078418
Ar 0.971754 2.69937 3.77173
Ar 0.83579 1.35355 2.72753
Ar 1.57955 3.0375 1.34431
Ar -0.679671 0.652294 2.7129
Ar 0.3248 1.70329 1.33772
Ar 3.50037 -0.815986 -0.757328
15

Ar 0.0110801 2.71944 1.3863
Ar 1.36406 1.77325 -1.91791
Ar -0.195845 0.716234 -0.114882
Ar 2.06567 0.723271 -0.695284
Ar 1.29776 0.328059 0.932881
Ar 1.9114 0.985233 0.419489
Ar -1.51601 0.0504417 2.46762
Ar 3.51266 2.25547 -1.28494
Ar 2.86666 1.3259 0.0604199
Ar 0.982587 2.73242 3.77657
Ar 0.817914 1.33684 2.72965
Ar 1.59784 3.03781 1.35024
Ar -0.676177 0.652025 2.71759
Ar 0.32065 1.71662 1.37445
Ar 3.50151 -0.826763 -0.766644
15

Ar 0.0116026 2.71711 1.40216
Ar 1.3956 1.75976 -1.93859
Ar -0.213217 0.713979 -0.129339
Ar 2.06109 0.741349 -0.70238
Ar 1.26883 0.316019 0.934322
Ar 1.92135 0.984643 0.418404
Ar -1.5285 0.0513405 2.46862
Ar 3.50661 2.25928 -1.28784
Ar 2.88236 1.31535 0.042509
Ar 0.993469 2.76548 3.78139
Ar 0.799393 1.31954 2.73263
Ar 1.61624 3.03808 1.35617
Ar -0.672184 0.652056 2.7221
Ar 0.316484 1.72932 1.41098
Ar 3.50264 -0.837057 -0.775589
15

Ar 0.0118547 2.71553 1.41792
Ar 1.42789 1.74665 -1.95974
Ar -0.230061 0.711455 -0.143597
Ar 2.05621 0.759436 -0.709634
Ar 1.2395 0.303665 0.936028
Ar 1.93113 0.984344 0.417596
Ar -1.54134 0.0517092 2.46918
Ar 3.50047 2.26255 -1.29103
Ar 2.89826 1.30537 0.0247119
Ar 1.0044 2.79855 3.7862
Ar 0.78039 1.30181 2.73624
Ar 1.63473 3.03831 1.36211
Ar -0.667737 0.652346 2.72639
Ar 0.312316 1.74132 1.4473
Ar 3.50377 -0.846811 -0.784132
15

Ar 0.0118253 2.71477 1.43357
Ar 1.4608 1.7338 -1.98122
Ar -0.24629 0.708605 -0.157635
Ar 2.05101 0.777545 -0.717052
Ar 1.20983 0.291065 0.937941
Ar 1.94071 0.984275 0.41712
Ar -1.55451 0.0515741 2.46932
Ar 3.49422 2.26521 -1.29452
Ar 2.91427 1.29602 0.00705884
Ar 1.01538 2.83163 3.79099
Ar 0.761039 1.28378 2.74034
Ar 1.65332 3.03852 1.36804
Ar -0.662885 0.652857 2.73041
Ar 0.308164 1.75257 1.48342
Ar 3.5049 -0.85597 -0.792243
15

Ar 0.0115048 2.71487 1.44907
Ar 1.49423 1.72113 1.99709
Ar -0.261801 0.705356 -0.171432
Ar 2.04549 0.79569 -0.724638
Ar 1.17985 0.278277 0.940014
Ar 1.95008 0.984386 0.417016
Ar -1.56797 0.0509616 2.46904
Ar 3.48786 2.26724 -1.29835
Ar 2.93027 1.28736 -0.0104169
Ar 1.0264 2.8647 3.79576
Ar 0.741448 1.26551 2.74481
Ar 1.67201 3.03869 1.37397
Ar -0.65768 0.653549 2.73413
Ar 0.30405 1.76301 1.51937
Ar 3.50603 -0.86448 -0.79989
15

Ar 0.010886 2.71589 1.46439
Ar 1.52808 1.70858 1.97525
Ar -0.27648 0.70162 -0.184966
Ar 2.03964 0.813883 -0.732397
Ar 1.14961 0.265349 0.942211
Ar 1.95922 0.984635 0.417311
Ar -1.58169 0.0498975 2.46839
Ar 3.48138 2.26857 -1.30253
Ar 2.94614 1.27945 -0.0276785
Ar 1.03746 2.89776 3.8005
Ar 0.721703 1.24707 2.74958
Ar 1.6908 3.03884 1.37989
Ar -0.652172 0.654384 2.73747
Ar 0.300001 1.77262 1.55515
Ar 3.50718 -0.87229 -0.807044
15

Ar 0.0099653 2.71787 1.47951
Ar 1.56229 1.6961 1.95331
Ar -0.2902 0.697295 -0.198213
Ar 2.03348 0.832138 -0.740326
Ar 1.11914 0.252318 0.944505
Ar 1.96814 0.984991 0.418021
Ar -1.59565 0.0484072 2.46738
Ar 3.47478 2.26916 -1.30707
Ar 2.96175 1.27239 -0.0446863
Ar 1.04856 2.93081 3.80521
Ar 0.701876 1.22848 2.75458
Ar 1.70967 3.03895 1.38581
Ar -0.646414 0.655327 2.74039
Ar 0.296046 1.78135 1.5908
Ar 3.50835 -0.879353 -0.813677
15

Ar 0.00874286 2.72084 1.49439
Ar 1.59679 1.68368 1.9313
Ar -0.302824 0.69226 -0.211146
Ar 2.027 0.850467 -0.748425
Ar 1.08845 0.239214 0.946875
Ar 1.97682 0.985426 0.419154
Ar -1.60982 0.0465153 2.46603
Ar 3.46803 2.26899 -1.31199
Ar 2.97692 1.26627 -0.0614026
Ar 1.0597 2.96384 3.80989
Ar 0.682027 1.20979 2.75979
Ar 1.72863 3.03905 1.39172
Ar -0.640458 0.656343 2.74282
Ar 0.292211 1.78919 1.62631
Ar 3.50955 -0.885629 -0.819765
15

Ar 0.00722332 2.72481 1.509
Ar 1.63152 1.67129 1.90925
Ar -0.31421 0.686381 -0.223738
Ar 2.02021 0.868882 -0.75669
Ar 1.05759 0.226064 0.949306
Ar 1.98526 0.985916 0.420711
Ar -1.62418 0.0442458 2.46436
Ar 3.46111 2.26802 -1.31729
Ar 2.99152 1.26123 -0.0777843
Ar 1.07088 2.99685 3.81453
Ar 0.662208 1.191 2.76516
Ar 1.74768 3.03912 1.39762
Ar -0.634358 0.657399 2.74468
Ar 0.288525 1.79612 1.66171
Ar 3.51079 -0.891088 -0.825287
15

Ar 0.00541592 2.72979 1.52332
Ar 1.66645 1.65892 1.88716
Ar -0.324219 0.679514 -0.235955
Ar 2.01311 0.887395 -0.765113
Ar 1.02656 0.212886 0.951786
Ar 1.99349 0.986452 0.422687
Ar -1.63871 0.041622 2.46241
Ar 3.454 2.26625 -1.32297
Ar 3.00537 1.25739 -0.093788
Ar 1.08209 3.02982 3.81914
Ar 0.642467 1.17213 2.77069
Ar 1.76681 3.03917 1.4035
Ar -0.628166 0.658465 2.74591
Ar 0.285013 1.80215 1.69701
Ar 3.51208 -0.89571 -0.830228
15

Ar 0.00333436 2.73576 1.53731
Ar 1.70154 1.64656 1.86504
Ar -0.332726 0.671511 -0.247761
Ar 2.00572 0.906015 -0.773687
Ar 0.995381 0.199698 0.954308
Ar 2.0015 0.98702 0.425071
Ar -1.65338 0.0386667 2.46018
Ar 3.44669 2.26367 -1.32902
Ar 3.01834 1.25489 -0.109373
Ar 1.09333 3.06274 3.8237
Ar 0.622847 1.15317 2.77636
Ar 1.78601 3.0392 1.40937
Ar -0.621936 0.659512 2.74644
Ar 0.281697 1.80731 1.7322
Ar 3.51343 -0.899485 -0.834581
15

Ar 0.000996857 2.7427 1.55095
Ar 1.73675 1.63421 1.8429
Ar -0.339632 0.662234 -0.259107
Ar 1.99803 0.924751 -0.782404
Ar 0.964078 0.186513 0.956871
Ar 2.0093 0.987603 0.427849
Ar -1.66819 0.035402 2.45772
Ar 3.43913 2.26029 -1.33543
Ar 3.0303 1.25384 -0.124506
Ar 1.1046 3.09562 3.82821
Ar 0.603393 1.13415 2.78216
Ar 1.80529 3.03922 1.4152
Ar -0.61572 0.660514 2.74618
Ar 0.278599 1.81162 1.76729
Ar 3.51484 -0.902416 -0.838342
15

Ar -0.00157505 2.75056 1.56423
Ar 1.77207 1.62186 1.82075
Ar -0.344875 0.65156 -0.269936
Ar 1.99007 0.943609 -0.791253
Ar 0.932664 0.173343 0.959472
Ar 2.01689 0.98819 0.431002
Ar -1.68311 0.0318497 2.45503
Ar 3.4313 2.25614 -1.34217
Ar 3.04116 1.25436 -0.13916
Ar 1.11591 3.12844 3.83266
Ar 0.584149 1.11504 2.7881
Ar 1.82462 3.03922 1.42101
Ar -0.609573 0.66145 2.74507
Ar 0.275735 1.81514 1.80226
Ar 3.51633 -0.904516 -0.841516
15

Ar -0.00435819 2.7593 1.57713
Ar 1.80746 1.60953 1.79858
Ar -0.348443 0.639403 -0.280183
Ar 1.98184 0.962595 -0.800224
Ar 0.901148 0.160199 0.962113
Ar 2.02429 0.988767 0.43451
Ar -1.69814 0.028031 2.45214
Ar 3.42319 2.25124 -1.34921
Ar 3.05089 1.25651 -0.153325
Ar 1.12724 3.16119 3.83706
Ar 0.565161 1.09588 2.79416
Ar 1.84401 3.03921 1.42678
Ar -0.603551 0.662298 2.74304
Ar 0.273126 1.81792 1.83709
Ar 3.5179 -0.905811 -0.844115
15

Ar -0.00732788 2.76886 1.58964
Ar 1.84291 1.5972 1.77641
Ar -0.350374 0.625715 -0.289781
Ar 1.97336 0.981713 -0.809308
Ar 0.86954 0.14709 0.964797
Ar 2.03151 0.989323 0.43835
Ar -1.71326 0.0239669 2.44908
Ar 3.41474 2.24564 -1.35651
Ar 3.05949 1.26032 -0.166998
Ar 1.13861 3.19387 3.84139
Ar 0.54648 1.07665 2.80034
Ar 1.86346 3.03918 1.43252
Ar -0.59771 0.663042 2.74003
Ar 0.270788 1.82002 1.87175
Ar 3.51955 -0.906339 -0.846154
15

Ar -0.010459 2.77919 1.60177
Ar 1.8784 1.58489 1.75425
Ar -0.350752 0.610495 -0.298659
Ar 1.96463 1.00097 -0.818493
Ar 0.83785 0.134024 0.967527
Ar 2.03856 0.989847 0.442496
Ar -1.72847 0.0196782 2.44586
Ar 3.40594 2.23939 -1.36405
Ar 3.06703 1.26577 -0.180185
Ar 1.15001 3.22646 3.84565
Ar 0.52816 1.05738 2.80665
Ar 1.88295 3.03913 1.4382
Ar -0.592108 0.663668 2.73598
Ar 0.268741 1.82151 1.90621
Ar 3.52129 -0.90615 -0.847654
15

Ar -0.0137266 2.79022 1.61351
Ar 1.91392 1.57259 1.73209
Ar -0.349703 0.593782 -0.306747
Ar 1.95567 1.02036 -0.82777
Ar 0.806084 0.121008 0.970309
Ar 2.04544 0.990328 0.446919
Ar -1.74376 0.0151851 2.44251
Ar 3.39675 2.23256 -1.37176
Ar 3.07358 1.2728 -0.19291
Ar 1.16145 3.25898 3.84984
Ar 0.51026 1.03805 2.81307
Ar 1.90248 3.03906 1.44384
Ar -0.586808 0.664165 2.73085
Ar 0.267006 1.82246 1.94044
Ar 3.52312 -0.905292 -0.84864
15

Ar -0.0171073 2.80189 1.62486
Ar 1.94946 1.56032 1.70994
Ar -0.347378 0.575653 -0.313984
Ar 1.94649 1.03988 -0.837129
Ar 0.774249 0.108049 0.973146
Ar 2.05216 0.990757 0.451578
Ar -1.75911 0.0105078 2.43905
Ar 3.38714 2.2252 -1.37962
Ar 3.07928 1.2813 -0.205202
Ar 1.17293 3.2914 3.85396
Ar 0.492844 1.01868 2.81962
Ar 1.92204 3.03897 1.44941
Ar -0.581872 0.664523 2.72463
Ar 0.265606 1.82293 1.97441
Ar 3.52504 -0.903818 -0.849139
15

Ar -0.0205789 2.81415 1.63585
Ar 1.98502 1.54809 1.68783
Ar -0.343945 0.556208 -0.320319
Ar 1.9371 1.05954 -0.846561
Ar 0.742351 0.0951521 0.976045
Ar 2.05873 0.991121 0.456441
Ar -1.77453 0.00566592 2.43552
Ar 3.37707 2.21737 -1.38759
Ar 3.08424 1.29116 -0.217092
Ar 1.18445 3.32372 3.858
Ar 0.475984 0.999266 2.82628
Ar 1.94162 3.03884 1.45493
Ar -0.577366 0.664734 2.7173
Ar 0.264568 1.82301 2.00809
Ar 3.52705 -0.901783 -0.849179
15

Ar -0.0241161 2.82693 1.64647
Ar 2.02057 1.53588 1.66576
Ar -0.339573 0.535561 -0.325719
Ar 1.92751 1.07934 -0.856058
Ar 0.710394 0.0823224 0.979008
Ar 2.06516 0.99141 0.461473
Ar -1.79 0.000679022 2.43192
Ar 3.36652 2.20916 -1.39562
Ar 3.08859 1.30223 -0.228614
Ar 1.19602 3.35595 3.86196
Ar 0.459757 0.979819 2.83306
Ar 1.96123 3.03869 1.46036
Ar -0.573358 0.664788 2.70887
Ar 0.263924 1.82274 2.04145
Ar 3.52914 -0.899241 -0.848791
15

Ar -0.0276967 2.84017 1.65674
Ar 2.05612 1.52373 1.64375
Ar -0.334424 0.513831 -0.330171
Ar 1.91773 1.09926 -0.865613
Ar 0.678384 0.0695645 0.98204
Ar 2.07145 0.991613 0.466639
Ar -1.80553 -0.00443369 2.42829
Ar 3.35543 2.20061 -1.40368
Ar 3.09246 1.31437 -0.239797
Ar 1.20764 3.38808 3.86584
Ar 0.444243 0.960344 2.83995
Ar 1.98086 3.03849 1.46572
Ar -0.56992 0.664678 2.69936
Ar 0.263704 1.82219 2.07447
Ar 3.53132 -0.896251 -0.848004
15

Ar -0.0312859 2.85384 1.66669
Ar 2.09166 1.51163 1.62184
Ar -0.328651 0.491135 -0.333673
Ar 1.90778 1.11931 -0.875218
Ar 0.646326 0.0568821 0.985141
Ar 2.0776 0.991717 0.471898
Ar -1.82111 -0.00965333 2.42462
Ar 3.3438 2.1918 -1.41174
Ar 3.09594 1.32744 -0.250668
Ar 1.21932 3.4201 3.86964
Ar 0.429528 0.940851 2.84696
Ar 2.00047 3.03825 1.47099
Ar -0.567123 0.664393 2.68879
Ar 0.263944 1.82141 2.10713
Ar 3.53357 -0.892864 -0.846846
15

Ar -0.0348662 2.86788 1.67632
Ar 2.1272 1.4996 1.60003
Ar -0.322392 0.467582 -0.336238
Ar 1.89765 1.13948 -0.884868
Ar 0.614223 0.0442786 0.988314
Ar 2.08363 0.99171 0.477209
Ar -1.83674 -0.0149613 2.42095
Ar 3.33158 2.18277 -1.41979
Ar 3.09914 1.34132 -0.261248
Ar 1.23106 3.45202 3.87336
Ar 0.415697 0.921348 2.85409
Ar 2.02007 3.03796 1.47616
Ar -0.565037 0.663923 2.67721
Ar 0.264675 1.82047 2.13941
Ar 3.53589 -0.889132 -0.845346
15

Ar -0.0384275 2.88224 1.68566
Ar 2.16273 1.48765 1.57836
Ar -0.31577 0.443272 -0.337888
Ar 1.88737 1.15976 -0.894558
Ar 0.582082 0.0317573 0.991555
Ar 2.08953 0.991577 0.482527
Ar -1.85243 -0.0203397 2.41728
Ar 3.31876 2.1736 -1.42782
Ar 3.10211 1.35588 -0.271554
Ar 1.24286 3.48384 3.87699
Ar 0.402836 0.901845 2.86133
Ar 2.03965 3.03761 1.48123
Ar -0.563731 0.663256 2.66466
Ar 0.265928 1.8194 2.17131
Ar 3.53827 -0.885106 -0.84353
15

Ar -0.0419623 2.89689 1.69472
Ar 2.19826 1.4758 1.55687
Ar -0.308892 0.418296 -0.338654
Ar 1.87693 1.18016 -0.904281
Ar 0.549909 0.0193216 0.994862
Ar 2.09529 0.991304 0.487802
Ar -1.86816 -0.0257708 2.41363
Ar 3.30532 2.16432 -1.43583
Ar 3.10494 1.37103 -0.281601
Ar 1.25474 3.51555 3.88056
Ar 0.391023 0.882351 2.8687
Ar 2.0592 3.0372 1.48618
Ar -0.563266 0.662385 2.65119
Ar 0.267729 1.81825 2.20284
Ar 3.54071 -0.880835 -0.841426
15

Ar -0.0454651 2.91177 1.70353
Ar 2.23381 1.46406 1.53559
Ar -0.301852 0.392737 -0.338574
Ar 1.86636 1.20066 -0.914036
Ar 0.51771 0.00697546 0.99823
Ar 2.10092 0.990872 0.492984
Ar -1.88395 -0.0312378 2.41001
Ar 3.29126 2.15497 -1.44381
Ar 3.10765 1.38668 -0.291398
Ar 1.26668 3.54716 3.88405
Ar 0.380326 0.862881 2.87619
Ar 2.07873 3.03672 1.49101
Ar -0.563695 0.6613 2.63683
Ar 0.270095 1.81708 2.234
Ar 3.5432 -0.87637 -0.839057
15

Ar -0.0489323 2.92684 1.7121
Ar 2.26937 1.45245 1.51456
Ar -0.294729 0.366667 -0.337685
Ar 1.85565 1.22127 -0.923817
Ar 0.485494 -0.00527652 1.00165
Ar 2.10641 0.990265 0.498016
Ar -1.89979 -0.0367248 2.40644
Ar 3.27657 2.14561 -1.45178
Ar 3.11029 1.40274 -0.300949
Ar 1.27869 3.57867 3.88748
Ar 0.370801 0.843442 2.88382
Ar 2.09824 3.03615 1.49571
Ar -0.565058 0.659998 2.62164
Ar 0.273039 1.81591 2.26481
Ar 3.54573 -0.871755 -0.836449
15

Ar -0.0523622 2.94206 1.72046
Ar 2.30496 1.44099 1.49383
Ar -0.287593 0.340154 -0.336024
Ar 1.84481 1.24199 -0.933621
Ar 0.453271 -0.0174284 1.00511
Ar 2.11175 0.989463 0.502841
Ar -1.91568 -0.0422166 2.40293
Ar 3.26127 2.13625 -1.45975
Ar 3.11288 1.41916 -0.310256
Ar 1.29078 3.61007 3.89086
Ar 0.362484 0.824035 2.89158
Ar 2.11772 3.0355 1.50027
Ar -0.567375 0.658478 2.60564
Ar 0.276568 1.81479 2.2953
Ar 3.54829 -0.86704 -0.833624
15

Ar -0.0557545 2.9574 1.72864
Ar 2.3406 1.42971 1.47345
Ar -0.280501 0.313259 -0.333624
Ar 1.83387 1.2628 -0.943446
Ar 0.421049 -0.0294725 1.00861
Ar 2.11691 0.988445 0.507399
Ar -1.93164 -0.0476992 2.39948
Ar 3.24538 2.12692 -1.46774
Ar 3.11545 1.43587 -0.319319
Ar 1.30294 3.64138 3.89418
Ar 0.35539 0.804662 2.89947
Ar 2.13717 3.03475 1.50468
Ar -0.570652 0.656744 2.58889
Ar 0.280686 1.81374 2.32549
Ar 3.55088 -0.862268 -0.830608
15

Ar -0.0591102 2.97282 1.73664
Ar 2.3763 1.41861 1.45347
Ar -0.2735 0.28604 -0.330516
Ar 1.82281 1.2837 -0.953288
Ar 0.388841 -0.0413994 1.01212
Ar 2.12189 0.987193 0.511631
Ar -1.94766 -0.0531599 2.3961
Ar 3.22893 2.11765 -1.47578
Ar 3.11801 1.45284 -0.328137
Ar 1.31517 3.67258 3.89748
Ar 0.349514 0.785322 2.90749
Ar 2.1566 3.03391 1.50894
Ar -0.574872 0.654805 2.57141
Ar 0.285377 1.81281 2.35541
Ar 3.55348 -0.857488 -0.827422
15

Ar -0.0624311 2.98829 1.74451
Ar 2.41209 1.40774 1.43392
Ar -0.266628 0.258552 -0.326725
Ar 1.81165 1.30469 -0.963145
Ar 0.356659 -0.0531974 1.01563
Ar 2.12665 0.985685 0.515476
Ar -1.96376 -0.0585873 2.39281
Ar 3.21196 2.10846 -1.48389
Ar 3.12058 1.47001 -0.336708
Ar 1.32747 3.70369 3.90074
Ar 0.344835 0.766013 2.91564
Ar 2.176 3.03296 1.51304
Ar -0.58 0.652672 2.55325
Ar 0.290616 1.81202 2.38509
Ar 3.55608 -0.852745 -0.824092
15

Ar -0.0657201 3.00375 1.75228
Ar 2.448 1.3971 1.41487
Ar -0.259916 0.230851 -0.322274
Ar 1.8004 1.32577 -0.973014
Ar 0.32452 -0.0648527 1.01912
Ar 2.13116 0.983905 0.518877
Ar -1.97992 -0.0639716 2.38959
Ar 3.19451 2.09935 -1.49208
Ar 3.12316 1.48735 -0.345028
Ar 1.33983 3.73469 3.90398
Ar 0.341306 0.746733 2.92388
Ar 2.19539 3.03191 1.51698
Ar -0.585985 0.650358 2.53446
Ar 0.296373 1.81139 2.41455
Ar 3.55867 -0.84809 -0.820645
15

Ar -0.0689803 3.01918 1.75996
Ar 2.48407 1.38672 1.39633
Ar -0.253384 0.202991 -0.317178
Ar 1.78906 1.34692 -0.982893
Ar 0.292438 -0.076349 1.02257
Ar 2.1354 0.981837 0.521781
Ar -1.99616 -0.0693045 2.38647
Ar 3.17661 2.09034 -1.50037
Ar 3.12575 1.50483 -0.353091
Ar 1.35226 3.7656 3.90721
Ar 0.338867 0.727482 2.93221
Ar 2.21475 3.03075 1.52074
Ar -0.592763 0.647878 2.51508
Ar 0.302614 1.81094 2.44383
Ar 3.56125 -0.843573 -0.817107
15

Ar -0.0722148 3.03454 1.7676
Ar 2.52034 1.37662 1.37836
Ar -0.247048 0.17503 -0.311447
Ar 1.77765 1.36815 -0.992777
Ar 0.260423 -0.0876674 1.02596
Ar 2.13931 0.97947 0.524141
Ar 1.98751 -0.0745793 2.38344
Ar 3.15832 2.08144 -1.50877
Ar 3.12837 1.52241 -0.360893
Ar 1.36475 3.7964 3.91043
Ar 0.337447 0.70826 2.9406
Ar 2.23408 3.02948 1.52433
Ar -0.600261 0.645247 2.49515
Ar 0.309302 1.81069 2.47295
Ar 3.56378 -0.839248 -0.813511
15

Ar -0.0754267 3.04978 1.77522
Ar 2.55685 1.3668 1.36095
Ar -0.240913 0.147028 -0.305088
Ar 1.76617 1.38945 -1.00266
Ar 0.228491 -0.0987862 1.02925
Ar 2.14288 0.976797 0.525924
Ar 1.9711 -0.0797911 2.3805
Ar 3.13968 2.07266 -1.51731
Ar 3.13101 1.54009 -0.368426
Ar 1.3773 3.8271 3.91366
Ar 0.33697 0.689072 2.94901
Ar 2.2534 3.0281 1.52773
Ar -0.608401 0.642477 2.47474
Ar 0.316395 1.81064 2.50192
Ar 3.56627 -0.835174 -0.809889
15

Ar -0.0786184 3.06486 1.78287
Ar 2.59364 1.35728 1.34413
Ar -0.234981 0.119049 -0.298097
Ar 1.75464 1.41082 -1.01255
Ar 0.196662 -0.109681 1.03243
Ar 2.14607 0.973818 0.527115
Ar 1.95459 -0.0849366 2.37765
Ar 3.12073 2.06401 -1.52598
Ar 3.13367 1.55783 -0.375684
Ar 1.3899 3.85768 3.9169
Ar 0.337355 0.669923 2.95743
Ar 2.27269 3.02662 1.53096
Ar -0.617106 0.639581 2.4539
Ar 0.323853 1.81081 2.53077
Ar 3.56869 -0.831412 -0.80628
15

Ar -0.081791 3.07975 1.79058
Ar 2.63074 1.34805 1.32787
Ar -0.22925 0.0911623 -0.290469
Ar 1.74305 1.43224 -1.02243
Ar 0.164949 -0.120325 1.03545
Ar 2.14884 0.970541 0.527714
Ar 1.93798 -0.0900141 2.37489
Ar 3.10151 2.05549 -1.53481
Ar 3.13637 1.57562 -0.38266
Ar 1.40255 3.88815 3.92014
Ar 0.338524 0.65082 2.96581
Ar 2.29194 3.02503 1.534
Ar -0.626296 0.63657 2.43267
Ar 0.331636 1.81119 2.55951
Ar 3.57102 -0.828028 -0.802729
15

Ar -0.0849441 3.09439 1.79841
Ar 2.66818 1.33911 1.31216
Ar -0.223706 0.0634412 -0.28219
Ar 1.73143 1.45372 -1.03231
Ar 0.133361 -0.130688 1.03827
Ar 2.15119 0.966981 0.527736
Ar 1.92128 -0.0950235 2.37222
Ar 3.08206 2.0471 -1.54378
Ar 3.13909 1.59345 -0.389348
Ar 1.41523 3.9185 3.9234
Ar 0.340403 0.631772 2.97413
Ar 2.31116 3.02334 1.53686
Ar -0.635898 0.633451 2.41112
Ar 0.339703 1.8118 2.58815
Ar 3.57323 -0.825094 -0.799283
15

Ar -0.0880769 3.10874 1.80639
Ar 2.70599 1.33046 1.29695
Ar -0.218329 0.0359637 -0.273237
Ar 1.71979 1.47525 -1.04217
Ar 0.101913 -0.140743 1.04088
Ar 2.15308 0.96316 0.527209
Ar 1.90448 -0.0999658 2.36962
Ar 3.06241 2.03885 -1.55292
Ar 3.14184 1.61129 -0.395742
Ar 1.42793 3.94871 3.92668
Ar 0.342919 0.612791 2.98236
Ar 2.33034 3.02156 1.53953
Ar -0.645846 0.630232 2.38928
Ar 0.348016 1.81263 2.6167
Ar 3.57532 -0.822681 -0.795999
15

Ar -0.0911943 3.12277 1.81458
Ar 2.74417 1.32208 1.28221
Ar -0.213093 0.00881522 -0.263585
Ar 1.70813 1.49683 -1.05203
Ar 0.0706098 -0.150459 1.04321
Ar 2.15452 0.959108 0.526174
Ar 1.88758 -0.104844 2.36711
Ar 3.0426 2.03074 -1.5622
Ar 3.14463 1.62915 -0.401838
Ar 1.44066 3.97878 3.92998
Ar 0.346007 0.593886 2.99048
Ar 2.34947 3.01969 1.54202
Ar -0.656081 0.626917 2.36722
Ar 0.356537 1.81366 2.64517
Ar 3.57723 -0.820868 -0.792937
15

Ar -0.0942894 3.13643 1.82302
Ar 2.78272 1.31396 1.26785
Ar -0.207967 -0.0179193 -0.253197
Ar 1.69647 1.51844 -1.06187
Ar 0.0394519 -0.15981 1.04524
Ar 2.15552 0.954863 0.524682
Ar 1.87059 -0.10966 2.36466
Ar 3.02264 2.02275 -1.57164
Ar 3.14743 1.647 -0.407632
Ar 1.4534 0.00869915 3.93328
Ar 0.349609 0.575068 2.99847
Ar 2.36856 3.01773 1.54432
Ar -0.66655 0.623509 2.34497
Ar 0.365228 1.81491 2.67356
Ar 3.57895 -0.819732 -0.790167
15

Ar -0.0973502 3.14969 1.83177
Ar 2.82164 1.30607 1.25383
Ar -0.202915 -0.0441584 -0.242036
Ar 1.68482 1.54009 -1.07169
Ar 0.00843662 -0.16877 1.04691
Ar 2.15611 0.950465 0.522793
Ar 1.85352 -0.114419 2.36228
Ar 3.00256 2.0149 -1.58123
Ar 3.15027 1.66485 -0.413123
Ar 1.46613 0.0384515 3.93659
Ar 0.353672 0.556349 3.0063
Ar 2.38759 3.01571 1.54644
Ar -0.677208 0.62001 2.32259
Ar 0.374059 1.81635 2.70187
Ar 3.58045 -0.819346 -0.787759
15

Ar -0.10036 3.16252 1.84087
Ar 2.86092 1.29841 1.24007
Ar -0.197898 -0.0698255 -0.230059
Ar 1.67319 1.56176 -1.08149
Ar -0.0224424 -0.177318 1.0482
Ar 2.15631 0.945961 0.520573
Ar 1.83635 -0.119127 2.35996
Ar 2.98238 2.00717 -1.59097
Ar 3.15313 1.68269 -0.418309
Ar 1.47884 0.0680186 3.9399
Ar 0.358146 0.537738 3.01396
Ar 2.40655 3.01362 1.54838
Ar -0.688015 0.616419 2.30012
Ar 0.382994 1.81799 2.73012
Ar 3.58168 -0.81978 -0.785789
15

Ar -0.1033 3.17489 1.85036
Ar 2.90053 1.29096 1.2265
Ar -0.192877 -0.0948529 -0.217226
Ar 1.66161 1.58345 -1.09127
Ar -0.0531953 -0.185438 1.04907
Ar 2.15618 0.941401 0.518088
Ar 1.8191 -0.123787 2.35769
Ar 2.9621 1.99956 -1.60084
Ar 3.15601 1.70052 -0.423192
Ar 1.49151 0.0973797 3.94318
Ar 0.362988 0.519245 3.02145
Ar 2.42544 3.01147 1.55014
Ar -0.698938 0.612737 2.2776
Ar 0.391997 1.8198 2.7583
Ar 3.58262 -0.821093 -0.784332
15

Ar -0.106146 3.18678 1.86028
Ar 2.94046 1.2837 1.21306
Ar -0.18781 -0.119186 -0.203498
Ar 1.65009 1.60516 -1.10103
Ar -0.0838357 -0.19312 1.0495
Ar 2.15575 0.936839 0.515412
Ar 1.80176 -0.128407 2.35547
Ar 2.94175 1.99207 -1.61084
Ar 3.1589 1.71832 -0.427774
Ar 1.50412 0.12651 3.94643
Ar 0.368159 0.500877 3.02876
Ar 2.44424 3.00929 1.55172
Ar -0.70995 0.608959 2.25509
Ar 0.401033 1.82179 2.78642
Ar 3.58324 -0.82333 -0.783459
15

Ar -0.108872 3.19818 1.87067
Ar 2.98068 1.27664 1.19967
Ar -0.182665 -0.142788 -0.188849
Ar 1.63865 1.62689 -1.11076
Ar -0.11438 -0.200363 1.04946
Ar 2.15511 0.932333 0.512614
Ar 1.78435 -0.132991 2.35329
Ar 2.92133 1.98466 -1.62096
Ar 3.16181 1.7361 -0.43206
Ar 1.51663 0.15538 3.94962
Ar 0.373623 0.482641 3.03587
Ar 2.46295 3.00706 1.55312
Ar -0.72103 0.605085 2.23261
Ar 0.410066 1.82394 2.81448
Ar 3.5835 -0.826516 -0.783233
15

Ar -0.111449 3.20909 1.88154
Ar 3.02118 1.26977 1.18628
Ar -0.177408 -0.165641 -0.173264
Ar 1.62733 1.64861 -1.12047
Ar -0.144847 -0.207174 1.04894
Ar 2.1543 0.927943 0.509771
Ar 1.76688 -0.137547 2.35113
Ar 2.90086 1.97735 -1.63119
Ar 3.16473 1.75385 -0.436056
Ar 1.52902 0.183953 3.95272
Ar 0.379349 0.464543 3.04279
Ar 2.48155 3.00481 1.55434
Ar -0.732162 0.601109 2.21022
Ar 0.419058 1.82625 2.84249
Ar 3.5834 -0.830658 -0.783707
15

Ar -0.113847 3.21953 1.8929
Ar 3.06192 1.26308 1.17284
Ar -0.172007 -0.187748 -0.156745
Ar 1.61613 1.67034 -1.13015
Ar -0.175257 -0.213568 1.04796
Ar 2.1534 0.923736 0.506958
Ar 1.74934 -0.142079 2.349
Ar 2.88034 1.97011 -1.64153
Ar 3.16765 1.77157 -0.43977
Ar 1.54123 0.212187 3.95568
Ar 0.385309 0.446588 3.04952
Ar 2.50003 3.00253 1.55539
Ar -0.743334 0.597028 2.18795
Ar 0.427972 1.82869 2.87045
Ar 3.5829 -0.835739 -0.784912
15

Ar -0.116037 3.2295 1.90474
Ar 3.10288 1.25659 1.15929
Ar -0.166439 -0.209126 -0.139316
Ar 1.6051 1.69207 -1.13983
Ar -0.20563 -0.219569 1.04654
Ar 2.15251 0.919784 0.504256
Ar 1.73174 -0.146595 2.34689
Ar 2.85977 1.96292 -1.65197
Ar 3.17057 1.78925 -0.443208
Ar 1.55322 0.240032 3.95847
Ar 0.391475 0.428779 3.05605
Ar 2.51837 3.00025 1.55626
Ar -0.754543 0.592839 2.16585
Ar 0.436769 1.83125 2.89838
Ar 3.582 -0.841721 -0.786862
15

Ar -0.117991 3.23902 1.91706
Ar 3.14407 1.2503 1.1456
Ar -0.160684 -0.229809 -0.121021
Ar 1.59426 1.71379 -1.14949
Ar -0.235987 -0.2252 1.04472
Ar 2.1517 0.916163 0.501752
Ar 1.7141 -0.1511 2.3448
Ar 2.83918 1.95576 -1.6625
Ar 3.17347 1.80689 -0.446379
Ar 1.56493 0.26743 3.96103
Ar 0.397826 0.41112 3.06237
Ar 2.53657 2.99796 1.55695
Ar -0.765786 0.588538 2.14394
Ar 0.44541 1.83393 2.92628
Ar 3.58071 -0.848547 -0.789553
15

Ar -0.119683 3.24813 1.92983
Ar 3.18546 1.24423 1.13173
Ar -0.154728 -0.249847 -0.101927
Ar 1.58364 1.73551 -1.15916
Ar -0.266347 -0.230494 1.04254
Ar 2.15107 0.912958 0.499539
Ar 1.69641 -0.155599 2.3427
Ar 2.81857 1.94863 -1.67311
Ar 3.17634 1.82445 -0.449286
Ar 1.57628 0.294314 3.96327
Ar 0.404339 0.39361 3.06849
Ar 2.55461 2.99566 1.55745
Ar -0.777067 0.584127 2.12226
Ar 0.453857 1.8367 2.95417
Ar 3.57902 -0.856144 -0.792958
15

Ar -0.121089 3.25685 1.943
Ar 3.22705 1.23839 1.11766
Ar -0.148558 -0.269307 -0.0821155
Ar 1.57327 1.75722 -1.16883
Ar -0.29673 -0.235483 1.04005
Ar 2.15074 0.910259 0.497719
Ar 1.67868 -0.160097 2.34061
Ar 2.79794 1.9415 -1.6838
Ar 3.17919 1.84194 -0.451941
Ar 1.58719 0.320608 3.96513
Ar 0.410996 0.376253 3.07443
Ar 2.57247 2.99337 1.55778
Ar -0.788395 0.579604 2.10084
Ar 0.462073 1.83956 2.98206
Ar 3.57696 -0.864429 -0.797037
15

Ar -0.122189 3.26521 1.95654
Ar 3.26883 1.23279 1.10335
Ar -0.142165 -0.288264 -0.0616858
Ar 1.56318 1.77893 -1.17854
Ar -0.327154 -0.240201 1.03731
Ar 2.15081 0.90816 0.496405
Ar 1.66094 -0.164594 2.33851
Ar 2.7773 1.93436 -1.69456
Ar 3.18198 1.85935 -0.454352
Ar 1.59755 0.346231 3.96649
Ar 0.417778 0.359048 3.08018
Ar 2.59014 2.99108 1.55793
Ar -0.79978 0.574975 2.0797
Ar 0.470023 1.8425 3.00999
Ar 3.57453 -0.873316 -0.801732
15

Ar -0.122967 3.27324 1.9704
Ar 3.3108 1.22745 1.08881
Ar -0.135539 -0.306793 -0.0407449
Ar 1.55339 1.80064 -1.18829
Ar -0.357635 -0.24468 1.03438
Ar 2.15143 0.906759 0.495718
Ar 1.64317 -0.16909 2.3364
Ar 2.75667 1.92718 -1.70539
Ar 3.18472 1.87665 -0.45653
Ar 1.60726 0.371098 3.96726
Ar 0.424668 0.341995 3.08577
Ar 2.6076 2.98878 1.55791
Ar -0.811236 0.570246 2.05887
Ar 0.477676 1.84548 3.03796
Ar 3.57177 -0.882712 -0.806979
15

Ar -0.123409 3.28099 1.98453
Ar 3.35297 1.22237 1.07402
Ar -0.128668 -0.324969 -0.0194054
Ar 1.54393 1.82235 -1.1981
Ar -0.388188 -0.248948 1.03134
Ar 2.1527 0.906152 0.495787
Ar 1.62539 -0.173589 2.33427
Ar 2.73606 1.91995 -1.71628
Ar 3.18738 1.89385 -0.458483
Ar 1.61621 0.395123 3.96731
Ar 0.431651 0.325095 3.0912
Ar 2.62484 2.98648 1.55771
Ar -0.822775 0.565429 2.03835
Ar 0.485007 1.8485 3.066
Ar 3.56869 -0.892532 -0.812709
15

Ar -0.123504 3.28847 1.99887
Ar 3.39534 1.21755 1.059
Ar -0.121536 -0.342863 0.00221795
Ar 1.5348 1.84407 -1.20799
Ar -0.41882 -0.253027 1.02824
Ar 2.15477 0.906427 0.496743
Ar 1.6076 -0.178087 2.33211
Ar 2.71547 1.91266 -1.72723
Ar 3.18996 1.91092 -0.460219
Ar 1.62427 0.418227 3.96652
Ar 0.438712 0.308348 3.09647
Ar 2.64183 2.98416 1.55735
Ar -0.834412 0.560539 2.01816
Ar 0.491996 1.85154 3.09414
Ar 3.5653 -0.90269 -0.818848
15

Ar -0.123245 3.29574 2.01339
Ar 3.43792 1.213 1.04376
Ar -0.114125 -0.360542 0.0239962
Ar 1.52601 1.86579 -1.21798
Ar -0.449545 -0.256933 1.02515
Ar 2.15774 0.907658 0.498711
Ar 1.58982 -0.182572 2.32992
Ar 2.69491 1.90529 -1.73824
Ar 3.19243 1.92785 -0.461744
Ar 1.63134 0.440345 3.96477
Ar 0.445837 0.291752 3.1016
Ar 2.65856 2.98181 1.55684
Ar -0.846162 0.555593 1.9983
Ar 0.498632 1.85458 3.1224
Ar 3.56165 -0.913108 -0.825325
15

Ar -0.122627 3.30281 2.02803
Ar 3.4807 1.2087 1.02831
Ar -0.106412 -0.378065 0.0458194
Ar 1.51755 1.88752 -1.22809
Ar -0.480381 -0.260676 1.0221
Ar 2.16172 0.909896 0.501803
Ar 1.57205 -0.187047 2.32769
Ar 2.6744 1.89782 -1.74931
Ar 3.19479 1.94461 -0.463062
Ar 1.63733 0.461434 3.96195
Ar 0.453014 0.275308 3.10661
Ar 2.67502 2.97941 1.55619
Ar -0.858034 0.550613 1.97877
Ar 0.504915 1.8576 3.1508
Ar 3.55774 -0.923713 -0.832072
15

Ar -0.121645 3.30973 2.04273
Ar 3.52369 1.20466 1.01267
Ar -0.0983729 -0.395486 0.0676009
Ar 1.50941 1.90928 -1.23833
Ar -0.511344 -0.264258 1.01914
Ar 2.16679 0.913165 0.506105
Ar 1.55431 -0.191515 2.32541
Ar 2.65394 1.89026 -1.76044
Ar 3.19701 1.96118 -0.464176
Ar 1.64218 0.481479 3.95798
Ar 0.460228 0.259015 3.11151
Ar 2.69117 2.97695 1.55541
Ar -0.87004 0.545625 1.95958
Ar 0.51085 1.8606 3.17937
Ar 3.55359 -0.934438 -0.839024
15

Ar -0.120297 3.31653 2.05745
Ar 3.56689 1.20086 0.996862
Ar -0.0899797 -0.412854 0.0892699
Ar 1.50156 1.93107 -1.24871
Ar -0.542445 -0.267673 1.01628
Ar 2.17298 0.917454 0.511669
Ar 1.53661 -0.19598 2.32308
Ar 2.63356 1.88258 -1.77162
Ar 3.19908 1.97754 -0.465086
Ar 1.64584 0.500494 3.95279
Ar 0.467469 0.242875 3.11632
Ar 2.70701 2.97438 1.55452
Ar -0.882185 0.540655 1.94072
Ar 0.516453 1.86355 3.20812
Ar 3.54922 -0.945221 -0.846123
15

Ar -0.118583 3.32322 2.07213
Ar 3.61029 1.19728 0.9809
Ar -0.0812074 -0.430209 0.110773
Ar 1.49398 1.9529 -1.25924
Ar -0.573692 -0.270908 1.01352
Ar 2.18029 0.922726 0.518509
Ar 1.51897 -0.200443 2.32068
Ar 2.61325 1.87477 -1.78286
Ar 3.20098 1.99364 -0.465788
Ar 1.64834 0.518526 3.94638
Ar 0.474723 0.226887 3.12105
Ar 2.72251 2.97168 1.55355
Ar -0.894472 0.535731 1.92219
Ar 0.521749 1.86644 3.23707
Ar 3.54464 -0.956003 -0.853318
15

Ar -0.116503 3.32984 2.08671
Ar 3.65389 1.19391 0.964807
Ar -0.0720332 -0.447585 0.132074
Ar 1.48663 1.97479 -1.26992
Ar -0.60509 -0.273944 1.01085
Ar 2.18868 0.928915 0.526597
Ar 1.5014 -0.204908 2.31821
Ar 2.59303 1.86684 -1.79416
Ar 3.20269 2.00946 -0.466278
Ar 1.64971 0.535646 3.93876
Ar 0.48198 0.211053 3.12572
Ar 2.73766 2.96881 1.55251
Ar -0.906902 0.530883 1.90398
Ar 0.526765 1.86926 3.26623
Ar 3.53986 -0.96673 -0.860563
15

Ar -0.114058 3.33642 2.10116
Ar 3.69768 1.19073 0.948606
Ar -0.0624395 -0.46501 0.153154
Ar 1.47946 1.99675 -1.28074
Ar -0.636632 -0.276758 1.00821
Ar 2.19808 0.935936 0.535869
Ar 1.48392 -0.209375 2.31566
Ar 2.57292 1.85877 -1.80553
Ar 3.20418 2.02496 -0.466546
Ar 1.65004 0.551947 3.93001
Ar 0.489226 0.195372 3.13034
Ar 2.75242 2.96572 1.55146
Ar -0.919473 0.52614 1.8861
Ar 0.531537 1.872 3.29561
Ar 3.5349 -0.977349 -0.867821
15

Ar -0.11125 3.34299 2.11541
Ar 3.74164 1.18773 0.932318
Ar -0.052415 -0.482507 0.174009
Ar 1.47244 2.01878 -1.2917
Ar -0.668307 -0.279319 1.00556
Ar 2.2084 0.943694 0.546236
Ar 1.46654 -0.213847 2.31301
Ar 2.55291 1.85055 -1.81696
Ar 3.20545 2.04008 -0.466578
Ar 1.64943 0.567528 3.9202
Ar 0.496452 0.179845 3.13494
Ar 2.76679 2.96235 1.55041
Ar -0.932179 0.521531 1.86853
Ar 0.536101 1.87466 3.32521
Ar 3.52977 -0.98781 -0.875062
15

Ar -0.108082 3.34956 2.12944
Ar 3.78577 1.18488 0.915961
Ar -0.0419558 -0.500092 0.194648
Ar 1.46551 2.04089 -1.30279
Ar -0.700096 -0.281596 1.00282
Ar 2.21954 0.952095 0.557585
Ar 1.44928 -0.218326 2.31027
Ar 2.53302 1.84218 -1.82846
Ar 3.20646 2.05478 -0.466357
Ar 1.64798 0.582493 3.90944
Ar 0.503645 0.164475 3.13954
Ar 2.78074 2.95866 1.54941
Ar -0.945014 0.517084 1.85129
Ar 0.540495 1.87722 3.35502
Ar 3.52448 -0.998062 -0.882264
15

Ar -0.104557 3.35617 2.14318
Ar 3.83005 1.18217 0.899556
Ar -0.0310657 -0.517774 0.215088
Ar 1.45863 2.0631 -1.31399
Ar -0.731976 -0.283555 0.999904
Ar 2.23138 0.961044 0.569796
Ar 1.43214 -0.222811 2.3074
Ar 2.51327 1.83366 -1.84002
Ar 3.2072 2.06901 -0.465861
Ar 1.64582 0.596939 3.89785
Ar 0.510795 0.149262 3.14415
Ar 2.79427 2.95457 1.5485
Ar -0.957969 0.512826 1.83437
Ar 0.544749 1.87968 3.38504
Ar 3.51904 -1.00805 -0.889413
15

Ar -0.10068 3.36285 2.15661
Ar 3.87447 1.17957 0.883118
Ar -0.0197555 -0.53556 0.235356
Ar 1.45176 2.0854 -1.32528
Ar -0.763921 -0.285162 0.996716
Ar 2.24381 0.970451 0.582749
Ar 1.41514 -0.227304 2.30441
Ar 2.49366 1.82498 -1.85166
Ar 3.20763 2.08272 -0.465064
Ar 1.64305 0.610957 3.88554
Ar 0.51789 0.134206 3.14879
Ar 2.80737 2.95004 1.54773
Ar -0.971034 0.508785 1.81778
Ar 0.548898 1.88206 3.41526
Ar 3.51348 -1.01774 -0.896504
15

Ar -0.0964564 3.3696 2.16968
Ar 3.91902 1.17708 0.866666
Ar -0.00804209 -0.55345 0.255481
Ar 1.44486 2.10781 -1.33664
Ar -0.795905 -0.286388 0.993161
Ar 2.25673 0.980244 0.596326
Ar 1.3983 -0.231804 2.30127
Ar 2.47421 1.81614 -1.86338
Ar 3.20774 2.09583 -0.463934
Ar 1.63979 0.624626 3.87261
Ar 0.524919 0.11931 3.15349
Ar 2.82004 2.94499 1.54715
Ar -0.984196 0.504984 1.80154
Ar 0.552975 1.88434 3.44566
Ar 3.50779 -1.02706 -0.903541
15

Ar -0.0918939 3.37647 2.18237
Ar 3.96368 1.17467 0.850215
Ar 0.0040528 -0.571444 0.275495
Ar 1.4379 2.13031 -1.34806
Ar -0.827907 -0.287209 0.989141
Ar 2.27005 0.990361 0.610416
Ar 1.38163 -0.236311 2.29798
Ar 2.45491 1.80714 -1.87517
Ar 3.2075 2.10829 -0.462436
Ar 1.63613 0.638012 3.85917
Ar 0.531872 0.104577 3.15827
Ar 2.8323 2.93937 1.54679
Ar -0.997442 0.501447 1.78567
Ar 0.557011 1.88653 3.47622
Ar 3.502 -1.03597 -0.910536
15

Ar -0.0870005 3.38347 2.19464
Ar 0.00843319 1.17233 0.83378
Ar 0.0165041 -0.589535 0.295427
Ar 1.43084 2.15291 -1.35952
Ar -0.859912 -0.287608 0.984568
Ar 2.28368 1.00076 0.624919
Ar 1.36514 -0.240823 2.29452
Ar 2.43576 1.79797 -1.88703
Ar 3.20689 2.12003 -0.46053
Ar 1.63215 0.651173 3.84531
Ar 0.538742 0.0900207 3.16315
Ar 2.84416 2.93313 1.54671
Ar -1.01076 0.498196 1.77017
Ar 0.561033 1.88865 3.50693
Ar 3.49611 -1.04442 -0.91751
15

Ar -0.0817866 3.39062 2.20646
Ar 0.0532744 1.17005 0.817377
Ar 0.0292847 -0.607718 0.315302
Ar 1.42366 2.1756 -1.37099
Ar -0.891913 -0.287584 0.97936
Ar 2.29755 1.01139 0.639742
Ar 1.34886 -0.245338 2.29088
Ar 2.41677 1.78863 -1.89896
Ar 3.20588 2.13098 -0.458173
Ar 1.62794 0.664155 3.83109
Ar 0.545519 0.0756459 3.16816
Ar 2.85566 2.92622 1.54692
Ar -1.02413 0.495249 1.75508
Ar 0.565064 1.8907 3.53777
Ar 3.49015 -1.05235 -0.92449
15

Ar -0.0762642 3.39794 2.21782
Ar 0.0981843 1.16781 0.801022
Ar 0.0423665 -0.625984 0.335142
Ar 1.41635 2.19838 -1.38246
Ar -0.923912 -0.287149 0.973452
Ar 2.31159 1.02224 0.654797
Ar 1.33279 -0.249852 2.28705
Ar 2.39793 1.77913 -1.91095
Ar 3.20446 2.14109 -0.455319
Ar 1.62355 0.676995 3.81659
Ar 0.552199 0.0614527 3.17333
Ar 2.86682 2.91862 1.54745
Ar -1.03754 0.492623 1.74042
Ar 0.569125 1.89269 3.56872
Ar 3.48412 -1.05974 -0.931509
15

Ar -0.0704474 3.40545 2.22869
Ar 0.143148 1.1656 0.784734
Ar 0.0557218 -0.644325 0.354969
Ar 1.40889 2.22126 -1.39391
Ar -0.95592 -0.286328 0.966791
Ar 2.32576 1.03328 0.670008
Ar 1.31695 -0.254361 2.28301
Ar 2.37924 1.76945 -1.92301
Ar 3.2026 2.15031 -0.451924
Ar 1.61904 0.689725 3.80185
Ar 0.558777 0.0474413 3.17867
Ar 2.87771 2.91031 1.54832
Ar -1.05096 0.490329 1.72621
Ar 0.573232 1.89464 3.59974
Ar 3.47803 -1.06653 -0.938605
15

Ar -0.0643527 3.41315 2.23905
Ar 0.188151 1.16339 0.768531
Ar 0.0693236 -0.662731 0.374801
Ar 1.40128 2.24421 -1.40532
Ar -0.98795 -0.285167 0.959342
Ar 2.34 1.0445 0.685305
Ar 1.30137 -0.258859 2.27875
Ar 2.36068 1.75962 -1.93512
Ar 3.2003 2.1586 -0.447951
Ar 1.61445 0.702368 3.78693
Ar 0.565248 0.0336115 3.18422
Ar 2.88836 2.9013 1.54952
Ar -1.06438 0.488376 1.71249
Ar 0.577399 1.89656 3.63082
Ar 3.4719 -1.07269 -0.945817
15

Ar -0.0579989 3.42108 2.2489
Ar 0.233178 1.16118 0.752435
Ar 0.0831466 -0.681192 0.394652
Ar 1.3935 2.26725 -1.41669
Ar -1.02002 -0.283722 0.951085
Ar 2.35428 1.0559 0.700624
Ar 1.28605 -0.263338 2.27424
Ar 2.34224 1.74963 -1.94727
Ar 3.19753 2.16591 -0.443368
Ar 1.60984 0.714946 3.77185
Ar 0.571611 0.0199626 3.19001
Ar 2.89883 2.89162 1.55106
Ar -1.07778 0.486769 1.69928
Ar 0.581637 1.89847 3.66192
Ar 3.46573 -1.07822 -0.953183
15

Ar -0.0514076 3.42922 2.25821
Ar 0.278214 1.15895 0.736474
Ar 0.0971671 -0.699697 0.414536
Ar 1.38557 2.29035 -1.42801
Ar -1.05216 -0.28206 0.942017
Ar 2.36855 1.06748 0.715904
Ar 1.271 -0.26779 2.26949
Ar 2.32392 1.73949 -1.95945
Ar 3.19431 2.17223 -0.438143
Ar 1.60523 0.727472 3.75665
Ar 0.577867 0.00649349 3.19606
Ar 2.90915 2.8813 1.55292
Ar -1.09112 0.485503 1.68661
Ar 0.585955 1.90039 3.69302
Ar 3.45952 -1.08309 -0.960741
15

Ar -0.0446029 3.4376 2.267
Ar 0.323244 1.15666 0.720676
Ar 0.111364 -0.718238 0.43446
Ar 1.37748 2.31351 -1.43927
Ar -1.08439 -0.280256 0.932144
Ar 2.3828 1.07925 0.731086
Ar 1.25626 -0.272203 2.26446
Ar 2.3057 1.72921 -1.97165
Ar 3.19062 2.17755 -0.432247
Ar 1.60066 0.73996 3.74135
Ar 0.584017 -0.0067975 3.20239
Ar 2.91938 2.87038 1.55507
Ar -1.10439 0.484572 1.67452
Ar 0.59036 1.90236 3.72407
Ar 3.45328 -1.08731 -0.968519
15

Ar -0.0376123 3.44622 2.27524
Ar 0.36825 1.15429 0.705077
Ar 0.125716 -0.736804 0.454432
Ar 1.36924 2.33672 -1.45046
Ar -1.11671 -0.278386 0.921483
Ar 2.397 1.0912 0.746111
Ar 1.24183 -0.276569 2.25915
Ar 2.28757 1.71881 -1.98384
Ar 3.18647 2.18188 -0.425664
Ar 1.59614 0.752418 3.72596
Ar 0.590066 -0.0199127 3.20905
Ar 2.92953 2.85893 1.55747
Ar -1.11756 0.483958 1.66304
Ar 0.594857 1.90439 3.75504
Ar 3.44699 -1.0909 -0.976542
15

Ar -0.0304658 3.45507 2.28294
Ar 0.413216 1.15181 0.689716
Ar 0.140208 -0.755385 0.474457
Ar 1.36087 2.35995 -1.46158
Ar -1.14916 -0.276531 0.910058
Ar 2.41112 1.10336 0.760924
Ar 1.22773 -0.280879 2.25355
Ar 2.26951 1.7083 -1.99602
Ar 3.18187 2.18525 -0.418387
Ar 1.59171 0.764854 3.7105
Ar 0.596019 -0.0328553 3.21604
Ar 2.93965 2.84699 1.56008
Ar -1.1306 0.483639 1.65221
Ar 0.599449 1.90654 3.78588
Ar 3.44064 -1.09388 -0.984824
15

Ar -0.0231971 3.46418 2.2901
Ar 0.458113 1.14916 0.674641
Ar 0.154823 -0.773972 0.494537
Ar 1.35237 2.3832 -1.47263
Ar -1.18174 -0.274763 0.8979
Ar 2.42517 1.11575 0.775466
Ar 1.21397 -0.285117 2.24763
Ar 2.2515 1.69772 1.99185
Ar 3.17685 2.18768 -0.410418
Ar 1.58739 0.777273 3.69496
Ar 0.601884 -0.0456291 3.2234
Ar 2.94976 2.83463 1.56288
Ar -1.14349 0.483583 1.64204
Ar 0.604137 1.90885 3.81656
Ar 3.43423 -1.09629 -0.993372
15

Ar -0.015843 3.47353 2.29673
Ar 0.50292 1.14631 0.659902
Ar 0.169546 -0.792555 0.514675
Ar 1.34376 2.40642 -1.4836
Ar -1.21446 -0.273142 0.88504
Ar 2.43914 1.12838 0.789682
Ar 1.20058 -0.289262 2.2414
Ar 2.23353 1.68708 1.97977
Ar 3.17142 2.18922 -0.401772
Ar 1.58318 0.789678 3.67936
Ar 0.607671 -0.0582389 3.23114
Ar 2.95986 2.8219 1.56582
Ar -1.15619 0.48375 1.63256
Ar 0.608918 1.91136 3.84701
Ar 3.42774 -1.09819 -1.00218
15

Ar -0.00844383 3.48313 2.30282
Ar 0.54763 1.14319 0.645556
Ar 0.184366 -0.811123 0.534869
Ar 1.33504 2.42961 -1.49448
Ar -1.24732 -0.271717 0.871516
Ar 2.45303 1.14127 0.803513
Ar 1.18757 -0.293291 2.23484
Ar 2.21557 1.67639 1.96779
Ar 3.1656 2.18993 -0.392471
Ar 1.57912 0.802073 3.66369
Ar 0.61339 -0.0706901 3.2393
Ar 2.96997 2.80884 1.56887
Ar -1.16868 0.484092 1.62381
Ar 0.613786 1.91415 3.87717
Ar 3.42115 -1.09961 -1.01124
15

Ar -0.00104347 3.49297 2.30839
Ar 0.592242 1.13973 0.631663
Ar 0.19927 -0.829668 0.555116
Ar 1.32625 2.45273 -1.50528
Ar -1.28035 -0.27053 0.857363
Ar 2.46683 1.15445 0.816904
Ar 1.17496 -0.297178 2.22794
Ar 2.1976 1.66568 1.95592
Ar 3.15942 2.18986 -0.382544
Ar 1.57522 0.814458 3.64794
Ar 0.619052 -0.0829894 3.24788
Ar 2.98009 2.79552 1.572
Ar -1.18094 0.484556 1.61579
Ar 0.618728 1.91729 3.907
Ar 3.41445 -1.10062 -1.02054
15

Ar 0.00631071 3.50306 2.31345
Ar 0.63676 1.13585 0.618283
Ar 0.214247 -0.848177 0.575414
Ar 1.31739 2.47575 -1.516
Ar -1.31353 -0.269608 0.84262
Ar 2.48055 1.16794 0.829799
Ar 1.16277 -0.300892 2.22069
Ar 2.1796 1.65497 1.9442
Ar 3.15291 2.18907 -0.37203
Ar 1.57148 0.826832 3.63211
Ar 0.624671 -0.0951335 3.2569
Ar 2.99022 2.78196 1.57519
Ar -1.19294 0.485081 1.60853
Ar 0.623726 1.92083 3.93644
Ar 3.40761 -1.10128 -1.03005
15

Ar 0.0135679 3.51338 2.31801
Ar 0.681196 1.13146 0.605472
Ar 0.229287 -0.866637 0.595765
Ar 1.30849 2.49864 -1.52661
Ar -1.34686 -0.26897 0.827324
Ar 2.4942 1.18176 0.842145
Ar 1.15102 -0.304402 2.21309
Ar 2.16154 1.64429 1.93265
Ar 3.1461 2.18763 -0.360972
Ar 1.56793 0.839195 3.61617
Ar 0.630259 -0.107121 3.26638
Ar 3.00037 2.7682 1.5784
Ar -1.20468 0.485604 1.60204
Ar 0.628754 1.92485 3.96543
Ar 3.40062 -1.10164 -1.03974
15

Ar 0.020674 3.52394 2.32209
Ar 0.725562 1.1265 0.593277
Ar 0.244379 -0.885027 0.616166
Ar 1.29955 2.52134 -1.53714
Ar -1.38035 -0.268626 0.811512
Ar 2.50779 1.19594 0.853893
Ar 1.13974 -0.307669 2.20512
Ar 2.1434 1.63365 1.9213
Ar 3.13901 2.18561 -0.349411
Ar 1.56457 0.851548 3.60012
Ar 0.635829 -0.118962 3.27632
Ar 3.01053 2.75427 1.58162
Ar -1.21614 0.486062 1.59632
Ar 0.633779 1.92943 3.99393
Ar 3.39346 -1.10176 -1.04958
15

Ar 0.0275722 3.53474 2.32571
Ar 0.769881 1.12085 0.581734
Ar 0.259516 -0.903318 0.636619
Ar 1.29061 2.54382 -1.54756
Ar -1.41399 -0.268577 0.795224
Ar 2.52134 1.21048 0.864998
Ar 1.12895 -0.310654 2.19679
Ar 2.12515 1.62307 1.9102
Ar 3.13167 2.18305 -0.337393
Ar 1.56141 0.863888 3.58393
Ar 0.641389 -0.130666 3.28673
Ar 3.0207 2.74021 1.58482
Ar -1.2273 0.486389 1.59136
Ar 0.638761 1.93464 0.0219249
Ar 3.38612 -1.10168 -1.05955
15

Ar 0.0342028 3.54577 2.3289
Ar 0.814176 1.11448 0.570862
Ar 0.274688 -0.921497 0.657125
Ar 1.28167 2.56603 -1.55787
Ar -1.44776 -0.268818 0.778494
Ar 2.53487 1.22542 0.875423
Ar 1.11869 -0.313313 2.18808
Ar 2.10676 1.61258 1.89936
Ar 3.1241 2.18002 -0.324961
Ar 1.55847 0.876214 3.56759
Ar 0.646949 -0.142242 3.29761
Ar 3.03087 2.72602 1.588
Ar -1.23817 0.486523 1.58715
Ar 0.643658 1.94052 0.0493928
Ar 3.3786 -1.10145 -1.06962
15

Ar 0.040505 3.55704 2.33167
Ar 0.858469 1.10734 0.560663
Ar 0.289887 -0.939549 0.677685
Ar 1.27277 2.58791 -1.56808
Ar -1.48166 -0.26934 0.76136
Ar 2.54843 1.24076 0.885138
Ar 1.10896 -0.315597 2.17899
Ar 2.0882 1.60219 1.88883
Ar 3.11633 2.17657 -0.312158
Ar 1.55576 0.888527 3.55108
Ar 0.652519 -0.153703 3.30896
Ar 3.04104 2.71173 1.59113
Ar -1.24874 0.486404 1.58368
Ar 0.648431 1.94709 0.0763472
Ar 3.37087 -1.10112 -1.07974
15

Ar 0.0464165 3.56853 2.33407
Ar 0.902783 1.09942 0.551123
Ar 0.305104 -0.957457 0.698302
Ar 1.26391 2.60941 -1.57816
Ar -1.51569 -0.27013 0.743856
Ar 2.56203 1.2565 0.894125
Ar 1.09982 -0.317453 2.16949
Ar 2.06946 1.59191 1.87861
Ar 3.10838 2.17275 -0.299028
Ar 1.55327 0.900825 3.53436
Ar 0.658109 -0.165058 3.32077
Ar 3.05121 2.69736 1.5942
Ar -1.25902 0.485981 1.58092
Ar 0.653046 1.95436 0.102814
Ar 3.36294 -1.10071 -1.08991
15

Ar 0.0518757 3.58025 2.33612
Ar 0.947132 1.09075 0.542217
Ar 0.320329 -0.975203 0.71898
Ar 1.25513 2.63046 -1.58811
Ar -1.54984 -0.271172 0.726014
Ar 2.57573 1.27266 0.902375
Ar 1.09127 -0.318825 2.15959
Ar 2.05049 1.58177 1.86873
Ar 3.10028 2.16861 -0.285608
Ar 1.55102 0.913106 3.5174
Ar 0.663726 -0.176318 3.33304
Ar 3.06136 2.68291 1.5972
Ar -1.26901 0.48521 1.57884
Ar 0.657477 1.96228 0.128829
Ar 3.35481 -1.10024 -1.10008
15

Ar 0.0568209 3.59221 2.33786
Ar 0.991523 1.08137 0.53391
Ar 0.335552 -0.992764 0.739728
Ar 1.24644 2.651 -1.59791
Ar -1.5841 -0.272449 0.707867
Ar 2.58955 1.28921 0.909889
Ar 1.08335 -0.319653 2.14926
Ar 2.03128 1.57177 1.85921
Ar 3.09203 2.16418 -0.271938
Ar 1.54901 0.925371 3.50018
Ar 0.669377 -0.187494 3.34575
Ar 3.0715 2.66839 1.60012
Ar -1.27874 0.484058 1.5774
Ar 0.661712 1.9708 0.154435
Ar 3.34647 -1.09976 -1.11023
15

Ar 0.0611937 3.6044 2.33933
Ar 1.03595 1.07133 0.526167
Ar 0.350763 -1.01012 0.760552
Ar 1.23787 2.67096 -1.60756
Ar -1.61846 -0.273943 0.689442
Ar 2.60354 1.30616 0.91668
Ar 1.07608 -0.319873 2.1385
Ar 2.0118 1.56192 1.85006
Ar 3.08366 2.1595 -0.258053
Ar 1.54723 0.937622 3.48266
Ar 0.675064 -0.198596 3.3589
Ar 3.08162 2.65382 1.60296
Ar -1.28821 0.482502 1.57656
Ar 0.665751 1.97982 0.179673
Ar 3.33792 -1.09926 -1.12033
15

Ar 0.064941 3.61683 2.34057
Ar 1.08041 1.0607 0.518952
Ar 0.365949 -1.02723 0.781465
Ar 1.22944 2.69025 -1.61703
Ar -1.65291 -0.275638 0.670769
Ar 2.61773 1.32349 0.922773
Ar 1.06949 -0.319419 2.12728
Ar 1.99203 1.55222 1.84129
Ar 3.07519 2.1546 -0.243987
Ar 1.54567 0.949863 3.4648
Ar 0.680791 -0.209635 3.37246
Ar 3.09171 2.63921 1.60569
Ar -1.29745 0.480525 1.57629
Ar 0.669607 1.98925 0.204577
Ar 3.32917 -1.09877 -1.13036
15

Ar 0.0680159 3.6295 2.34161
Ar 1.12488 1.04956 0.512232
Ar 0.381082 -1.04407 0.802482
Ar 1.22117 2.70881 -1.6263
Ar -1.68743 -0.277518 0.651872
Ar 2.63214 1.34117 0.928205
Ar 1.0636 -0.318222 2.11558
Ar 1.97197 1.54267 1.83289
Ar 3.06662 2.14952 -0.229773
Ar 1.54434 0.962098 3.4466
Ar 0.68656 -0.220618 3.38641
Ar 3.10177 2.62455 1.60832
Ar -1.30646 0.478125 1.57654
Ar 0.6733 1.99897 0.229174
Ar 3.32022 -1.09829 -1.1403
15

Ar 0.0703789 3.64242 2.3425
Ar 1.16933 1.03798 0.505977
Ar 0.396145 -1.0606 0.823622
Ar 1.21308 2.72656 -1.63534
Ar -1.72199 -0.279568 0.632774
Ar 2.6468 1.35917 0.933021
Ar 1.05841 -0.316212 2.10339
Ar 1.9516 1.53326 1.82485
Ar 3.05799 2.14429 -0.215443
Ar 1.5432 0.974331 3.42801
Ar 0.692368 -0.231554 3.40075
Ar 3.11179 2.60985 1.61083
Ar -1.31526 0.475302 1.57726
Ar 0.676861 2.00885 0.253478
Ar 3.31107 -1.09784 -1.15012
15

Ar 0.0719993 3.6556 2.34327
Ar 1.21374 1.02603 0.500158
Ar 0.411122 -1.07677 0.844909
Ar 1.20519 2.74341 -1.64415
Ar -1.75659 -0.281777 0.613498
Ar 2.66172 1.37748 0.93727
Ar 1.05394 -0.313323 2.09067
Ar 1.93091 1.524 1.81717
Ar 3.0493 2.13892 -0.201025
Ar 1.54226 0.986569 3.40903
Ar 0.698213 -0.24245 3.41544
Ar 3.12178 2.59512 1.61323
Ar -1.32387 0.472068 1.5784
Ar 0.680323 2.01879 0.277489
Ar 3.30173 -1.09742 -1.15981
15

Ar 0.0728562 3.66904 2.34397
Ar 1.25809 1.01376 0.494746
Ar 0.425995 -1.09254 0.866367
Ar 1.19752 2.7593 -1.65268
Ar -1.79121 -0.284134 0.594063
Ar 2.67692 1.39604 0.941012
Ar 1.05017 -0.309489 2.07741
Ar 1.90991 1.51488 1.80982
Ar 3.04057 2.13345 -0.186551
Ar 1.54148 0.99882 3.38964
Ar 0.704091 -0.253314 3.43046
Ar 3.13174 2.58037 1.61551
Ar -1.3323 0.468435 1.57992
Ar 0.683721 2.02865 0.301194
Ar 3.29221 -1.09703 -1.16934
15

Ar 0.0729388 3.68276 2.34464
Ar 1.30237 1.00123 0.489711
Ar 0.440744 -1.10785 0.888025
Ar 1.19009 2.77415 -1.66092
Ar -1.82584 -0.286632 0.574487
Ar 2.69238 1.41484 0.944304
Ar 1.0471 -0.304654 2.06359
Ar 1.88861 1.50589 1.80279
Ar 3.03181 2.12791 -0.172056
Ar 1.54084 1.01109 3.36985
Ar 0.709999 -0.26415 3.4458
Ar 3.14167 2.5656 1.61767
Ar -1.34055 0.464423 1.58178
Ar 0.687094 2.03832 0.324567
Ar 3.28251 -1.09666 -1.1787
15

Ar 0.0722468 3.69674 2.3453
Ar 1.34657 0.988479 0.485018
Ar 0.455347 -1.12264 0.909928
Ar 1.1829 2.78792 -1.66883
Ar -1.86045 -0.28927 0.554786
Ar 2.70809 1.43381 0.947208
Ar 1.0447 -0.298769 2.04918
Ar 1.86702 1.49703 1.79607
Ar 3.02303 2.1223 -0.157572
Ar 1.54032 1.02339 3.34967
Ar 0.71593 -0.274964 3.46143
Ar 3.15156 2.55082 1.61971
Ar -1.34863 0.460051 1.58395
Ar 0.690492 2.04767 0.347568
Ar 3.27263 -1.09633 -1.18786
15

Ar 0.0707899 3.711 2.34599
Ar 1.39068 0.975555 0.480631
Ar 0.469783 -1.13685 0.932122
Ar 1.17597 2.80057 -1.67638
Ar -1.89504 -0.292048 0.534975
Ar 2.72404 1.45293 0.949785
Ar 1.04297 -0.291795 2.03418
Ar 1.84515 1.4883 1.78964
Ar 3.01424 2.11666 -0.143129
Ar 1.5399 1.03573 3.3291
Ar 0.721881 -0.285759 3.47732
Ar 3.16144 2.53603 1.62162
Ar -1.35655 0.455343 1.58638
Ar 0.693955 2.0566 0.37013
Ar 3.26258 -1.09602 -1.19681
15

Ar 0.068587 3.72555 2.34673
Ar 1.43467 0.962494 0.47651
Ar 0.484028 -1.15039 0.954663
Ar 1.1693 2.81206 -1.68353
Ar -1.92959 -0.29497 0.515068
Ar 2.7402 1.47214 0.952095
Ar 1.04187 -0.283711 2.01857
Ar 1.82302 1.47968 1.78346
Ar 3.00544 2.111 -0.12876
Ar 1.53954 1.04811 3.30818
Ar 0.727843 -0.296539 3.49344
Ar 3.17129 2.52125 1.62342
Ar -1.36432 0.45032 1.58904
Ar 0.697517 2.06499 0.39219
Ar 3.25237 -1.09573 -1.20554
15

Ar 0.0656637 3.74037 2.34755
Ar 1.47856 0.949333 0.472611
Ar 0.498058 -1.16321 0.977611
Ar 1.16291 2.8224 -1.69028
Ar -1.96407 -0.298048 0.495076
Ar 2.75656 1.4914 0.954195
Ar 1.04137 -0.274508 2.00236
Ar 1.80065 1.47118 1.77753
Ar 2.99666 2.10536 -0.114499
Ar 1.53923 1.06053 3.28693
Ar 0.733809 -0.307305 3.50979
Ar 3.18112 2.50648 1.62512
Ar -1.37194 0.445005 1.59191
Ar 0.701211 2.07271 0.413678
Ar 3.242 -1.09545 -1.21404
15

Ar 0.0620519 3.75548 2.34847
Ar 1.52233 0.936109 0.468891
Ar 0.511849 -1.17522 1.00103
Ar 1.15679 2.83159 -1.6966
Ar -1.99847 -0.301296 0.475012
Ar 2.77308 1.51065 0.956139
Ar 1.04144 -0.264195 1.98555
Ar 1.77804 1.46279 1.77181
Ar 2.98789 2.09975 -0.100382
Ar 1.53895 1.073 3.26539
Ar 0.73977 -0.318059 3.52633
Ar 3.19093 2.49175 1.62672
Ar -1.37941 0.43942 1.59497
Ar 0.705065 2.07967 0.434516
Ar 3.23147 -1.09518 -1.2223
15

Ar 0.0577908 3.77086 2.3495
Ar 1.56598 0.92286 0.465306
Ar 0.525379 -1.18635 1.02498
Ar 1.15094 2.83966 -1.70247
Ar 1.96724 -0.304732 0.454885
Ar 2.78974 1.52984 0.957979
Ar 1.04205 -0.252797 1.96817
Ar 1.75524 1.45451 1.7663
Ar 2.97914 2.09419 -0.0864489
Ar 1.53868 1.08553 3.24359
Ar 0.745714 -0.328804 3.54303
Ar 3.20073 2.47706 1.62823
Ar -1.38674 0.433586 1.59819
Ar 0.709106 2.08577 0.454625
Ar 3.22078 -1.09492 -1.23031
15

Ar 0.0529233 3.78651 2.35065
Ar 1.60951 0.909626 0.461816
Ar 0.538629 -1.19655 1.04953
Ar 1.14535 2.84666 -1.70789
Ar 1.93307 -0.308381 0.434706
Ar 2.8065 1.54891 0.959763
Ar 1.04316 -0.240352 1.95022
Ar 1.73224 1.44635 1.76096
Ar 2.97043 2.0887 -0.0727432
Ar 1.53842 1.0981 3.22157
Ar 0.751626 -0.339539 3.55987
Ar 3.21053 2.46243 1.62968
Ar -1.39392 0.427521 1.60155
Ar 0.713352 2.09091 0.473927
Ar 3.20995 -1.09465 -1.23806
15

Ar 0.0474945 3.80242 2.35192
Ar 1.65292 0.896447 0.458381
Ar 0.551583 -1.20577 1.07472
Ar 1.14002 2.85266 -1.71285
Ar 1.89903 -0.312266 0.414485
Ar 2.82335 1.56781 0.961535
Ar 1.04475 -0.226911 1.93174
Ar 1.70906 1.43829 1.75578
Ar 2.96175 2.08332 -0.0593122
Ar 1.53814 1.11071 3.19938
Ar 0.757489 -0.350265 3.57683
Ar 3.22035 2.44789 1.63109
Ar -1.40096 0.421244 1.60505
Ar 0.717817 2.09503 0.492347
Ar 3.19897 -1.09437 -1.24555
15

Ar 0.0415504 3.81859 2.35333
Ar 1.69623 0.883364 0.454969
Ar 0.564227 -1.21398 1.1006
Ar 1.13494 2.85771 -1.71734
Ar 1.86515 -0.316413 0.394234
Ar 2.84024 1.58647 0.963337
Ar 1.04676 -0.212533 1.91277
Ar 1.68573 1.43034 1.75075
Ar 2.95311 2.07807 -0.0462083
Ar 1.53784 1.12337 3.17704
Ar 0.763283 -0.360983 3.59386
Ar 3.23021 2.43347 1.63249
Ar -1.40786 0.414771 1.60867
Ar 0.722509 2.09807 0.50982
Ar 3.18785 -1.09407 -1.25278
15

Ar 0.0351368 3.83501 2.35487
Ar 1.73943 0.870413 0.45155
Ar 0.576555 -1.22116 1.12719
Ar 1.1301 2.86191 -1.72136
Ar 1.83145 -0.320846 0.373964
Ar 2.85714 1.60482 0.965204
Ar 1.04917 -0.197284 1.89334
Ar 1.66226 1.42249 1.74584
Ar 2.94451 2.07297 -0.0334878
Ar 1.53752 1.13607 3.15459
Ar 0.768979 -0.371693 3.61095
Ar 3.24013 2.41919 1.63392
Ar -1.41461 0.408118 1.6124
Ar 0.727427 2.1 0.526298
Ar 3.17658 -1.09375 -1.25974
15

Ar 0.0282982 3.85166 2.35655
Ar 1.78255 0.857624 0.448098
Ar 0.588561 -1.22734 1.1545
Ar 1.12549 2.86534 -1.72489
Ar 1.79793 -0.325583 0.353694
Ar 2.87402 1.62279 0.967169
Ar 1.05194 -0.181231 1.8735
Ar 1.63865 1.41474 1.74103
Ar 2.93595 2.06804 -0.0212111
Ar 1.53717 1.1488 3.13207
Ar 0.774542 -0.382398 3.62806
Ar 3.25013 2.40509 1.63543
Ar -1.42121 0.401297 1.61624
Ar 0.732567 2.10082 0.541748
Ar 3.16517 -1.09339 -1.26643
15

Ar 0.0210774 3.86854 2.35835
Ar 1.82561 0.845023 0.444595
Ar 0.600239 -1.23256 1.18249
Ar 1.12113 2.86807 -1.72793
Ar 1.76464 -0.330631 0.333448
Ar 2.89086 1.64031 0.969257
Ar 1.05504 -0.164444 1.85328
Ar 1.61492 1.40709 1.73631
Ar 2.92743 2.06332 -0.00944221
Ar 1.53679 1.16157 3.10952
Ar 0.779929 -0.393097 3.64513
Ar 3.26024 2.39121 1.63705
Ar -1.42766 0.39432 1.62018
Ar 0.737916 2.10054 0.556158
Ar 3.15362 -1.093 -1.27285
15

Ar 0.0135145 3.88564 2.36028
Ar 1.86863 0.832621 0.441021
Ar 0.611588 -1.23686 1.21111
Ar 1.117 2.87019 -1.73046
Ar 1.7316 -0.335989 0.313262
Ar 2.90761 1.6573 0.971488
Ar 1.05843 -0.146991 1.83273
Ar 1.59108 1.39953 1.73165
Ar 2.91893 2.05883 0.0017524
Ar 1.53637 1.17436 3.08696
Ar 0.785077 -0.403794 3.66213
Ar 3.27049 2.37761 1.63886
Ar -1.43395 0.387182 1.62423
Ar 0.743459 2.0992 0.569536
Ar 3.14194 -1.09257 -1.27901
15

Ar 0.00564684 3.90295 2.36233
Ar 1.91163 0.820419 0.437364
Ar 0.622606 -1.24032 1.24029
Ar 1.11313 2.87178 -1.73244
Ar 1.69889 -0.34164 0.29318
Ar 2.92424 1.67368 0.973872
Ar 1.06209 -0.128936 1.81189
Ar 1.56715 1.39205 1.72702
Ar 2.91046 2.05458 0.012305
Ar 1.53593 1.18717 3.06444
Ar 0.789908 -0.414495 3.67898
Ar 3.28091 2.36435 1.64093
Ar -1.44009 0.379891 1.62838
Ar 0.749176 2.09686 0.581908
Ar 3.13011 -1.09209 -1.2849
15

Ar -0.00249104 3.92046 2.36449
Ar 1.95462 0.808405 0.433609
Ar 0.633286 -1.24303 1.26993
Ar 1.10952 2.87292 -1.73384
Ar 1.66657 -0.34755 0.273267
Ar 2.94073 1.68937 0.976407
Ar 1.06597 -0.110342 1.79079
Ar 1.54313 1.38467 1.72241
Ar 2.90198 2.0506 0.0221487
Ar 1.53546 1.19999 3.04198
Ar 0.794313 -0.42521 3.69561
Ar 3.29155 2.35148 1.64333
Ar -1.44608 0.372457 1.63263
Ar 0.755047 2.09359 0.593316
Ar 3.11815 -1.09156 -1.29053
15

Ar -0.0108676 3.93815 2.36676
Ar 1.99762 0.79656 0.429744
Ar 0.643616 -1.24509 1.2999
Ar 1.10621 2.87369 -1.73461
Ar 1.6348 -0.353677 0.253612
Ar 2.95705 1.70429 0.97908
Ar 1.07006 -0.0912674 1.76946
Ar 1.51903 1.37736 1.71779
Ar 2.8935 2.04691 0.0312195
Ar 1.53497 1.21283 3.01961
Ar 0.798145 -0.435954 3.71192
Ar 3.30244 2.33905 1.64616
Ar -1.45191 0.364889 1.63698
Ar 0.76105 2.08947 0.603811
Ar 3.10606 -1.09097 -1.2959
15

Ar -0.0194529 3.95602 2.36914
Ar 2.04065 0.784859 0.425759
Ar 0.653579 -1.2466 1.33007
Ar 1.10322 2.87416 -1.7347
Ar 1.60375 -0.359967 0.234345
Ar 2.97317 1.71838 0.981863
Ar 1.0743 -0.0717678 1.74795
Ar 1.49487 1.37013 1.71314
Ar 2.88498 2.04353 0.0394589
Ar 1.53445 1.22568 2.99736
Ar 0.801206 -0.446749 3.72778
Ar 3.31362 2.32713 1.6495
Ar -1.45759 0.357193 1.64145
Ar 0.767166 2.08457 0.613454
Ar 3.09384 -1.09031 -1.30103
15

Ar -0.0282205 3.97405 2.37163
Ar 2.08369 0.77327 0.421643
Ar 0.663142 -1.24764 1.36025
Ar 1.10057 2.8744 -1.734
Ar 1.57369 -0.366352 0.215623
Ar 2.98907 1.73155 0.984715
Ar 1.07869 -0.0518968 1.72626
Ar 1.47066 1.36297 1.70844
Ar 2.8764 2.04045 0.0468162
Ar 1.53393 1.23853 2.97526
Ar 0.803225 -0.457631 3.74303
Ar 3.32515 2.31576 1.65346
Ar -1.46311 0.349378 1.64602
Ar 0.773376 2.07899 0.622305
Ar 3.08152 -1.08959 -1.3059
15

Ar -0.037147 3.99225 2.3742
Ar 2.12677 0.761763 0.417387
Ar 0.672266 -1.24831 1.39028
Ar 1.09833 2.87447 -1.73243
Ar 1.54497 -0.372744 0.197647
Ar 3.00471 1.74376 0.987574
Ar 1.08317 -0.0317056 1.70444
Ar 1.4464 1.35588 1.70367
Ar 2.86773 2.0377 0.0532504
Ar 1.53339 1.25139 2.95335
Ar 0.803848 -0.468651 3.75744
Ar 3.33707 2.30502 1.65814
Ar -1.46847 0.34145 1.65071
Ar 0.779663 2.07279 0.630427
Ar 3.06909 -1.08881 -1.31054
15

Ar -0.0462116 0.0105921 2.37687
Ar 2.16987 0.750308 0.412982
Ar 0.680892 -1.24871 1.41993
Ar 1.09656 2.87444 -1.72983
Ar 1.51805 -0.379041 0.180666
Ar 3.02007 1.75495 0.990373
Ar 1.08773 -0.0112444 1.68252
Ar 1.4221 1.34886 1.6988
Ar 2.85895 2.03527 0.0587319
Ar 1.53285 1.26424 2.93164
Ar 0.802612 -0.479882 3.77076
Ar 3.34942 2.29493 1.66364
Ar -1.47368 0.333416 1.65551
Ar 0.786011 2.06606 0.637878
Ar 3.05655 -1.08795 -1.31494
15

Ar -0.0553959 0.029078 2.37963
Ar 2.21299 0.738876 0.40842
Ar 0.688952 -1.24892 1.44898
Ar 1.09536 2.87439 -1.72605
Ar 1.49349 -0.385115 0.164962
Ar 3.03514 1.76508 0.993036
Ar 1.09233 0.00943742 1.66051
Ar 1.39778 1.34191 1.69382
Ar 2.85004 2.03316 0.0632434
Ar 1.53231 1.2771 2.91018
Ar 0.798959 -0.491424 3.78271
Ar 3.36225 2.28555 1.67008
Ar -1.47875 0.325281 1.66043
Ar 0.792409 2.05886 0.644713
Ar 3.04392 -1.08701 -1.31911
15

Ar -0.0646833 0.0476962 2.38247
Ar 2.25613 0.727445 0.403695
Ar 0.696359 -1.24902 1.47719
Ar 1.0948 2.87437 -1.7209
Ar 1.47192 -0.390817 0.150831
Ar 3.04989 1.77414 0.995485
Ar 1.09695 0.0302897 1.63841
Ar 1.37343 1.33503 1.68871
Ar 2.84096 2.03137 0.0667799
Ar 1.53179 1.28995 2.88898
Ar 0.792261 -0.503401 3.79299
Ar 3.37559 2.2769 1.67752
Ar -1.48366 0.317052 1.66547
Ar 0.798845 2.05124 0.650979
Ar 3.03119 -1.086 -1.32305
15

Ar -0.074059 0.0664366 2.38538
Ar 2.29929 0.71599 0.398805
Ar 0.703017 -1.24908 1.5043
Ar 1.09502 2.87446 -1.71419
Ar 1.45397 -0.395991 0.138523
Ar 3.06432 1.78212 0.997645
Ar 1.10156 0.0512605 1.61623
Ar 1.34907 1.32822 1.68344
Ar 2.8317 2.0299 0.0693482
Ar 1.53129 1.3028 2.86807
Ar 0.781907 -0.515952 3.80135
Ar 3.38946 2.26899 1.68606
Ar -1.48843 0.308733 1.67063
Ar 0.805311 2.04326 0.656717
Ar 3.01835 -1.08491 -1.32678
15

Ar -0.0835098 0.0852902 2.38838
Ar 2.34247 0.704491 0.393746
Ar 0.708824 -1.24917 1.53006
Ar 1.09611 2.87471 -1.7057
Ar 1.44009 -0.400492 0.128186
Ar 3.07842 1.78902 0.99945
Ar 1.10615 0.0722871 1.59399
Ar 1.32471 1.3215 1.67802
Ar 2.82223 2.02875 0.0709657
Ar 1.53082 1.31564 2.84747
Ar 0.767429 -0.529204 3.80764
Ar 3.40387 2.26183 1.69575
Ar -1.49305 0.30033 1.67591
Ar 0.8118 2.03499 0.661962
Ar 3.00541 -1.08373 -1.33029
15

Ar -0.0930241 0.10425 2.39144
Ar 2.38566 0.692932 0.388519
Ar 0.713677 -1.24935 1.55422
Ar 1.0982 2.8752 -1.69523
Ar 1.4305 -0.404219 0.119818
Ar 3.0922 1.79489 1.00085
Ar 1.11067 0.0933111 1.57168
Ar 1.30035 1.31488 1.67244
Ar 2.81254 2.02789 0.0716592
Ar 1.5304 1.32848 2.82722
Ar 0.748624 -0.543249 3.81187
Ar 3.41884 2.25539 1.70661
Ar -1.49754 0.291849 1.68131
Ar 0.818304 2.02647 0.666741
Ar 2.99237 -1.08248 -1.33359
15

Ar -0.102591 0.123311 2.39457
Ar 2.42887 0.681296 0.383127
Ar 0.717486 -1.24968 1.57657
Ar 1.10137 2.87598 -1.68262
Ar 1.42507 -0.407135 0.113257
Ar 3.10567 1.79977 1.00181
Ar 1.11513 0.114275 1.5493
Ar 1.27599 1.30836 1.66668
Ar 2.80263 2.02733 0.071463
Ar 1.53003 1.34133 2.80731
Ar 0.725617 -0.558112 3.81421
Ar 3.43435 2.24963 1.71865
Ar -1.50189 0.283294 1.68683
Ar 0.824803 2.01773 0.671073
Ar 2.97923 -1.08113 -1.33669
15

Ar -0.112202 0.142465 2.39776
Ar 2.47211 0.669572 0.377577
Ar 0.720186 -1.25018 1.59697
Ar 1.10572 2.87709 -1.66775
Ar 1.42339 -0.409273 0.10823
Ar 3.11884 1.80371 1.0023
Ar 1.11949 0.135119 1.52686
Ar 1.25163 1.30198 1.66075
Ar 2.7925 2.02705 0.0704172
Ar 1.52974 1.35417 2.78779
Ar 0.69882 -0.573753 3.81493
Ar 3.45039 2.24452 1.73186
Ar -1.50611 0.274669 1.69246
Ar 0.831291 2.00882 0.674973
Ar 2.96599 -1.0797 -1.33959
15

Ar -0.121848 0.161709 2.40101
Ar 2.51537 0.657749 0.371871
Ar 0.721748 -1.25088 1.61533
Ar 1.11128 2.87857 -1.65057
Ar 1.4249 -0.41072 0.104415
Ar 3.13174 1.80678 1.00235
Ar 1.12376 0.155779 1.50435
Ar 1.22726 1.29574 1.65466
Ar 2.78212 2.02703 0.0685661
Ar 1.52952 1.36701 2.76865
Ar 0.66881 -0.590082 3.81436
Ar 3.46692 2.23999 1.7462
Ar -1.51021 0.265981 1.6982
Ar 0.837763 1.99977 0.678451
Ar 2.95263 -1.07818 -1.3423
15

Ar -0.13152 0.181036 2.40432
Ar 2.55866 0.645819 0.366015
Ar 0.722181 -1.25179 1.63167
Ar 1.11805 2.88043 -1.63113
Ar 1.42896 -0.411586 0.101508
Ar 3.14439 1.80907 1.00195
Ar 1.12791 0.176189 1.48175
Ar 1.20288 1.28969 1.64843
Ar 2.77151 2.02728 0.0659571
Ar 1.52941 1.37985 2.74991
Ar 0.636211 -0.606983 3.8128
Ar 3.48392 2.23597 1.76162
Ar -1.51418 0.257233 1.70405
Ar 0.844221 1.99061 0.681513
Ar 2.93918 -1.07658 -1.34482
15

Ar -0.141213 0.200443 2.40767
Ar 2.60198 0.633774 0.360018
Ar 0.72154 -1.25288 1.64607
Ar 1.126 2.88268 -1.60952
Ar 1.435 -0.411986 0.0992501
Ar 3.15683 1.81065 1.00115
Ar 1.13194 0.196278 1.45907
Ar 1.17848 1.28386 1.64208
Ar 2.76065 2.02777 0.0626397
Ar 1.52939 1.3927 2.73159
Ar 0.60159 -0.624338 3.81052
Ar 3.50134 2.23239 1.77803
Ar -1.51804 0.248429 1.70999
Ar 0.850662 1.98136 0.684158
Ar 2.92562 -1.07489 -1.34716
15

Ar -0.150919 0.219923 2.41108
Ar 2.64534 0.621612 0.353886
Ar 0.71991 -1.25413 1.65867
Ar 1.13503 2.8853 -1.58593
Ar 1.44256 -0.412025 0.0974403
Ar 3.16908 1.8116 0.999973
Ar 1.13586 0.215973 1.43628
Ar 1.15404 1.27828 1.63563
Ar 2.74955 2.02849 0.0586638
Ar 1.5295 1.40554 2.71367
Ar 0.565431 -0.642035 3.80772
Ar 3.51912 2.2292 1.79538
Ar -1.52178 0.239573 1.71603
Ar 0.857088 1.97206 0.686385
Ar 2.91196 -1.07311 -1.34933
15

Ar -0.160634 0.239471 2.41454
Ar 2.68874 0.609329 0.347628
Ar 0.717405 -1.25549 1.66967
Ar 1.14506 2.88826 -1.56056
Ar 1.45124 -0.411788 0.0959294
Ar 3.18118 1.81199 0.998469
Ar 1.13966 0.235196 1.41337
Ar 1.12957 1.27299 1.62913
Ar 2.7382 2.02942 0.0540796
Ar 1.52974 1.41838 2.69616
Ar 0.528111 -0.659988 3.80456
Ar 3.53722 2.22631 1.81357
Ar -1.52541 0.230669 1.72215
Ar 0.8635 1.96274 0.688187
Ar 2.89819 -1.07124 -1.35134
15

Ar -0.17035 0.259066 2.41805
Ar 2.73217 0.596925 0.341251
Ar 0.714153 -1.25693 1.67926
Ar 1.15597 2.89154 -1.53364
Ar 1.46078 -0.411345 0.0946104
Ar 3.19314 1.8119 0.996677
Ar 1.14335 0.253869 1.39032
Ar 1.10505 1.26805 1.62263
Ar 2.72662 2.03056 0.0489364
Ar 1.53013 1.43122 2.67907
Ar 0.489916 -0.678126 3.80115
Ar 3.55558 2.22368 1.83252
Ar -1.52895 0.22172 1.72835
Ar 0.869901 1.95341 0.689554
Ar 2.88432 -1.06929 -1.35319
15

Ar -0.180063 0.278703 2.42161
Ar 2.77565 0.584401 0.334764
Ar 0.710286 -1.2584 1.68765
Ar 1.16764 2.89511 -1.50541
Ar 1.47094 -0.410748 0.0934076
Ar 3.20499 1.81138 0.994642
Ar 1.14696 0.271913 1.36709
Ar 1.08044 1.2635 1.61618
Ar 2.71481 2.03187 0.0432823
Ar 1.53068 1.44405 2.66239
Ar 0.451061 -0.696398 3.79758
Ar 3.57413 2.22126 1.85216
Ar -1.53238 0.21274 1.73462
Ar 0.876293 1.94412 0.69046
Ar 2.87036 -1.06726 -1.35489
15

Ar -0.18977 0.298378 2.42522
Ar 2.81917 0.571759 0.328175
Ar 0.705932 -1.25984 1.69505
Ar 1.17995 2.89894 -1.47606
Ar 1.48158 -0.41004 0.0922683
Ar 3.21675 1.81051 0.992401
Ar 1.1505 0.289257 1.34366
Ar 1.05572 1.25938 1.60984
Ar 2.70277 2.03336 0.0371637
Ar 1.53139 1.45687 2.64612
Ar 0.411703 -0.714763 3.7939
Ar 3.59282 2.21897 1.87242
Ar -1.53573 0.203734 1.74096
Ar 0.88268 1.93488 0.690892
Ar 2.8563 -1.06515 -1.35646
15

Ar -0.199465 0.318087 2.42887
Ar 2.86274 0.559004 0.321492
Ar 0.701208 -1.26122 1.70161
Ar 1.19282 2.903 -1.4458
Ar 1.49258 -0.409249 0.0911558
Ar 3.22845 1.80933 0.989989
Ar 1.154 0.305834 1.32
Ar 1.03086 1.25572 1.60368
Ar 2.69052 2.035 0.030625
Ar 1.53229 1.46968 2.63024
Ar 0.37196 -0.733192 3.79016
Ar 3.6116 2.21678 1.89323
Ar -1.53901 0.194704 1.74735
Ar 0.889068 1.92574 0.690834
Ar 2.84216 -1.06297 -1.35791
15

Ar -0.209144 0.337825 2.43258
Ar 2.90635 0.546139 0.314724
Ar 0.696224 -1.26248 1.70749
Ar 1.20613 2.90726 -1.41478
Ar 1.50385 -0.4084 0.0900451
Ar 3.24009 1.80789 0.987438
Ar 1.15749 0.321591 1.29608
Ar 1.00582 1.25257 1.59777
Ar 2.67808 2.03677 0.023708
Ar 1.53336 1.48247 2.61475
Ar 0.331917 -0.751662 3.78638
Ar 3.63041 2.21464 1.91454
Ar -1.5422 0.185654 1.75379
Ar 0.895462 1.9167 0.690271
Ar 2.82793 -1.06072 -1.35924
15

Ar -0.218806 0.357588 2.43634
Ar 2.95 0.533171 0.307878
Ar 0.691078 -1.26359 1.7128
Ar 1.21981 2.9117 -1.38316
Ar 1.51533 -0.407509 0.0889194
Ar 3.25169 1.80623 0.984774
Ar 1.16102 0.336486 1.27187
Ar 0.980565 1.24992 1.59217
Ar 2.66544 2.03867 0.0164525
Ar 1.53462 1.49524 2.59961
Ar 0.291639 -0.770156 3.78258
Ar 3.64919 2.21251 1.9363
Ar -1.54533 0.176587 1.76028
Ar 0.901877 1.9078 0.689187
Ar 2.81363 -1.05841 -1.36046
15

Ar -0.228447 0.377374 2.44015
Ar 2.99369 0.520106 0.300962
Ar 0.685858 -1.2645 1.71765
Ar 1.2338 2.91631 -1.35104
Ar 1.52698 -0.406589 0.0877675
Ar 3.26326 1.80438 0.982019
Ar 1.16462 0.350496 1.24733
Ar 0.955046 1.24779 1.58696
Ar 2.65263 2.04067 0.00889537
Ar 1.53607 1.50798 2.58483
Ar 0.251176 -0.788662 3.77878
Ar 3.66791 2.21035 1.95848
Ar -1.54841 0.167508 1.76679
Ar 0.908324 1.89907 0.687567
Ar 2.79927 -1.05604 -1.36159
15

Ar -0.238065 0.397178 2.44401
Ar 3.03741 0.506951 0.293984
Ar 0.680641 -1.26519 1.72211
Ar 1.24802 2.92108 -1.31852
Ar 1.53876 -0.405651 0.086583
Ar 3.27479 1.80238 0.979191
Ar 1.16832 0.363618 1.22245
Ar 0.929233 1.24615 1.58218
Ar 2.63965 2.04276 0.00107111
Ar 1.53772 1.52069 2.57037
Ar 0.210564 -0.807173 3.77499
Ar 3.68649 2.20813 1.98104
Ar -1.55143 0.158419 1.77333
Ar 0.914814 1.89053 0.685396
Ar 2.78486 -1.05362 -1.36264
15

Ar -0.24766 0.416995 2.44792
Ar 3.08115 0.493712 0.28695
Ar 0.675498 -1.26562 1.72624
Ar 1.26242 2.92598 -1.28569
Ar 1.55065 -0.4047 0.0853625
Ar 3.28629 1.80026 0.976304
Ar 1.17215 0.375867 1.19722
Ar 0.903093 1.24497 1.5779
Ar 2.62653 2.04492 -0.00698759
Ar 1.53955 1.53336 2.55621
Ar 0.169836 -0.825684 3.77122
Ar 3.7049 2.20583 2.00396
Ar -1.55441 0.149324 1.77989
Ar 0.92136 1.88219 0.682668
Ar 2.7704 -1.05116 -1.36361
15

Ar -0.257229 0.436822 2.45189
Ar 3.12491 0.480399 0.279869
Ar 0.670489 -1.26576 1.73007
Ar 1.27696 2.93102 -1.25261
Ar 1.56263 -0.403742 0.0841055
Ar 3.29776 1.79802 0.973371
Ar 1.17615 0.387277 1.17162
Ar 0.876595 1.24421 1.57415
Ar 2.61326 2.04714 -0.0152427
Ar 1.54158 1.54597 2.54233
Ar 0.129017 -0.844193 3.76746
Ar 3.72308 2.20342 2.02722
Ar -1.55735 0.140228 1.78646
Ar 0.927976 1.87409 0.67938
Ar 2.75592 -1.04866 -1.36452
15

Ar -0.266772 0.456655 2.45591
Ar 3.1687 0.467018 0.272747
Ar 0.665668 -1.26559 1.73365
Ar 1.2916 2.93617 -1.21934
Ar 1.57469 -0.402779 0.0828137
Ar 3.30919 1.7957 0.9704
Ar 1.18034 0.397899 1.14566
Ar 0.849717 1.2438 1.57095
Ar 2.59987 2.04942 -0.0236651
Ar 1.5438 1.55854 2.52872
Ar 0.0881282 -0.862698 3.76373
Ar 3.741 2.20088 2.0508
Ar -1.56026 0.131136 1.79302
Ar 0.934675 1.86623 0.675527
Ar 2.74142 -1.04613 -1.36538
15

Ar -0.276291 0.47649 2.45999
Ar 3.21249 0.453581 0.265592
Ar 0.66108 -1.26506 1.73698
Ar 1.30629 2.94143 -1.18592
Ar 1.58682 -0.401814 0.0814909
Ar 3.32059 1.79332 0.967399
Ar 1.18472 0.407795 1.11935
Ar 0.822448 1.24368 1.56833
Ar 2.58636 2.05172 -0.0322301
Ar 1.54621 1.57105 2.51536
Ar 0.0471891 -0.881202 3.76001
Ar 3.7586 2.19818 2.0747
Ar -1.56314 0.122052 1.79958
Ar 0.941472 1.85863 0.671109
Ar 2.72693 -1.04358 -1.3662
15

Ar -0.285786 0.496321 2.46413
Ar 3.25629 0.440095 0.258409
Ar 0.656766 -1.26417 1.74007
Ar 1.32099 2.94679 -1.15238
Ar 1.59902 -0.400846 0.0801434
Ar 3.33194 1.79087 0.964372
Ar 1.18932 0.417036 1.09272
Ar 0.794784 1.24377 1.56628
Ar 2.57275 2.05405 -0.040915
Ar 1.5488 1.58349 2.50221
Ar 0.00621718 -0.899704 3.75632
Ar 3.77586 2.1953 2.09893
Ar -1.56601 0.112982 1.80612
Ar 0.94838 1.85128 0.666129
Ar 2.71245 -1.04102 -1.367
15

Ar -0.295259 0.516145 2.46833
Ar 3.30007 0.426572 0.251206
Ar 0.652757 -1.26288 1.74294
Ar 1.33568 2.95223 -1.11876
Ar 1.61128 -0.399874 0.0787802
Ar 3.34323 1.78838 0.961323
Ar 1.19413 0.425697 1.06578
Ar 0.76673 1.24401 1.56478
Ar 2.55905 2.05638 -0.0496991
Ar 1.55158 1.59586 2.48926
Ar -0.0347717 -0.918209 3.75265
Ar 3.79274 2.19224 2.12348
Ar -1.56887 0.103931 1.81264
Ar 0.955412 1.8442 0.660599
Ar 2.698 -1.03845 -1.36777
15

Ar -0.304712 0.535955 2.47259
Ar 3.34384 0.413022 0.243988
Ar 0.649077 -1.26118 1.74558
Ar 1.35032 2.95775 -1.08508
Ar 1.62362 -0.398894 0.0774116
Ar 3.35447 1.78586 0.958253
Ar 1.19915 0.43385 1.03857
Ar 0.738302 1.24432 1.56382
Ar 2.54526 2.05871 -0.0585632
Ar 1.55453 1.60815 2.4765
Ar -0.0757629 -0.936719 3.74899
Ar 3.80922 2.18899 2.14836
Ar -1.57172 0.0949064 1.81913
Ar 0.962579 1.83739 0.654533
Ar 2.6836 -1.03588 -1.36854
15

Ar -0.31415 0.555747 2.47691
Ar 3.38759 0.399454 0.236761
Ar 0.645745 -1.25905 1.74798
Ar 1.36488 2.96333 -1.05137
Ar 1.63602 -0.397898 0.0760505
Ar 3.36564 1.78332 0.955164
Ar 1.20435 0.441569 1.01113
Ar 0.70952 1.24465 1.56336
Ar 2.5314 2.06103 -0.0674895
Ar 1.55766 1.62037 2.4639
Ar -0.116743 -0.955236 3.74535
Ar 3.82528 2.18553 2.17358
Ar -1.57457 0.0859143 1.82558
Ar 0.969889 1.83084 0.647952
Ar 2.66928 -1.03332 -1.36931
15

Ar -0.323576 0.575515 2.48131
Ar 3.43133 0.385879 0.22953
Ar 0.642768 -1.25648 1.75012
Ar 1.37932 2.96896 -1.01766
Ar 1.64849 -0.39688 0.0747127
Ar 3.37672 1.78076 0.952055
Ar 1.20973 0.448919 0.983494
Ar 0.680415 1.24493 1.56336
Ar 2.51748 2.06332 -0.0764617
Ar 1.56095 1.6325 2.45144
Ar -0.157701 -0.973764 3.74174
Ar 3.84089 2.18187 2.19915
Ar -1.57743 0.0769619 1.83198
Ar 0.977347 1.82454 0.64088
Ar 2.65503 -1.03077 -1.3701
15

Ar -0.332996 0.595253 2.48577
Ar 3.47504 0.372307 0.2223
Ar 0.640151 -1.25346 1.752
Ar 1.39362 2.97461 -0.98397
Ar 1.66105 -0.395831 0.0734174
Ar 3.38773 1.77819 0.948926
Ar 1.21527 0.455962 0.955698
Ar 0.65102 1.24513 1.56378
Ar 2.5035 2.06557 -0.0854646
Ar 1.5644 1.64454 2.43911
Ar -0.198624 -0.992305 3.73816
Ar 3.85607 2.17799 2.22507
Ar -1.58029 0.0680568 1.83833
Ar 0.984956 1.81849 0.633345
Ar 2.64089 -1.02825 -1.37093
15

Ar -0.342414 0.614953 2.4903
Ar 3.51872 0.358745 0.215077
Ar 0.637882 -1.24999 1.75361
Ar 1.40773 2.98027 -0.950338
Ar 1.67371 -0.39474 0.0721879
Ar 3.39863 1.77562 0.945775
Ar 1.22094 0.462749 0.927783
Ar 0.621372 1.24521 1.56456
Ar 2.48947 2.06776 -0.094484
Ar 1.56801 1.65649 2.4269
Ar -0.239504 -1.01086 3.73461
Ar 3.87081 2.17392 2.25135
Ar -1.58317 0.0592082 1.84462
Ar 0.992714 1.81267 0.625379
Ar 2.62688 -1.02576 -1.37179
15

Ar -0.351836 0.63461 2.49491
Ar 3.56239 0.3452 0.207865
Ar 0.635941 -1.24607 1.75496
Ar 1.42164 2.98591 -0.916793
Ar 1.68646 -0.393591 0.071052
Ar 3.40942 1.77305 0.942597
Ar 1.22673 0.469329 0.899784
Ar 0.591516 1.24513 1.56567
Ar 2.4754 2.06989 -0.103507
Ar 1.57177 1.66834 2.41478
Ar -0.280333 -1.02942 3.7311
Ar 3.88512 2.16967 2.27799
Ar -1.58606 0.0504266 1.85083
Ar 1.00062 1.80709 0.617017
Ar 2.61301 -1.02331 -1.37271
15

Ar -0.361269 0.654214 2.4996
Ar 3.60603 0.331676 0.200665
Ar 0.634314 -1.24171 1.75603
Ar 1.4353 2.99151 -0.88337
Ar 1.69934 -0.392368 0.0700429
Ar 3.42009 1.7705 0.939388
Ar 1.23261 0.475742 0.871735
Ar 0.561495 1.24487 1.56706
Ar 2.46129 2.07193 -0.11252
Ar 1.57567 1.6801 2.40275
Ar -0.3211 -1.04799 3.72762
Ar 3.89902 2.16523 2.30499
Ar -1.58898 0.0417216 1.85697
Ar 1.00866 1.80172 0.608291
Ar 2.59931 -1.02091 -1.37371
15

Ar -0.370723 0.673758 2.50438
Ar 3.64964 0.318175 0.193477
Ar 0.63298 -1.23691 1.75683
Ar 1.44869 2.99703 -0.850107
Ar 1.71233 -0.391045 0.0692001
Ar 3.43062 1.76796 0.936141
Ar 1.23858 0.482022 0.843665
Ar 0.531352 1.24442 1.56868
Ar 2.44716 2.07388 -0.121512
Ar 1.5797 1.69177 2.3908
Ar -0.361785 -1.06657 3.72418
Ar 3.91253 2.16064 2.33236
Ar -1.59191 0.0331029 1.86302
Ar 1.01684 1.79657 0.599234
Ar 2.58578 -1.01856 -1.37479
15

Ar -0.380205 0.693234 2.50924
Ar 3.69324 0.304696 0.1863
Ar 0.631916 -1.2317 1.75737
Ar 1.46176 3.00244 -0.817052
Ar 1.72547 -0.389592 0.0685699
Ar 3.441 1.76546 0.932848
Ar 1.24461 0.488198 0.815603
Ar 0.501133 1.24377 1.57049
Ar 2.43299 2.0757 -0.130473
Ar 1.58387 1.70333 2.3789
Ar -0.402375 -1.08513 3.72078
Ar 3.92567 2.15591 2.36008
Ar -1.59487 0.024581 1.86897
Ar 1.02513 1.79163 0.58988
Ar 2.57244 -1.01628 -1.37597
15

Ar -0.389728 0.712631 2.51421
Ar 3.7368 0.291237 0.179133
Ar 0.631096 -1.22607 1.75765
Ar 1.47448 3.00769 -0.784256
Ar 1.73877 -0.387972 0.0682061
Ar 3.45121 1.76298 0.9295
Ar 1.2507 0.494296 0.787573
Ar 0.470882 1.24289 1.57246
Ar 2.41881 2.0774 -0.139389
Ar 1.58817 1.71479 2.36706
Ar -0.442861 -1.10368 3.71742
Ar 3.93848 2.15107 2.38816
Ar -1.59785 0.0161673 1.87482
Ar 1.03353 1.78688 0.580258
Ar 2.55929 -1.01407 -1.37726
15

Ar -0.399303 0.731939 2.51928
Ar 3.78034 0.277793 0.17197
Ar 0.630494 -1.22006 1.75769
Ar 1.48682 3.01274 -0.751779
Ar 1.75228 -0.386139 0.0681705
Ar 3.46124 1.76056 0.926084
Ar 1.25682 0.500336 0.759599
Ar 0.440643 1.24178 1.57457
Ar 2.4046 2.07894 -0.148249
Ar 1.59258 1.72615 2.35525
Ar -0.483229 -1.12219 3.71412
Ar 3.95098 2.14614 2.41657
Ar -1.60087 0.00787367 1.88055
Ar 1.04203 1.78233 0.570398
Ar 2.54634 -1.01194 -1.37868
15

Ar -0.40894 0.751149 2.52447
Ar 3.82382 0.264356 0.164807
Ar 0.630083 -1.21368 1.75749
Ar 1.49872 3.01752 -0.719692
Ar 1.76604 -0.384041 0.0685322
Ar 3.47106 1.75819 0.922586
Ar 1.26299 0.506336 0.7317
Ar 0.410459 1.24044 1.57677
Ar 2.39038 2.08029 -0.157044
Ar 1.5971 1.73741 2.34349
Ar -0.523461 -1.14066 3.71088
Ar 3.96322 2.14114 2.44531
Ar -1.60391 -0.00028732 1.88615
Ar 1.0506 1.77798 0.560328
Ar 2.5336 -1.00989 -1.38023
15

Ar -0.418643 0.770249 2.52979
Ar 3.86725 0.25092 0.157639
Ar 0.629838 -1.20696 1.75707
Ar 1.51014 3.02197 -0.68807
Ar 1.78009 -0.381614 0.0693682
Ar 3.48067 1.75588 0.918989
Ar 1.26917 0.512313 0.703897
Ar 0.380374 1.23887 1.57906
Ar 2.37613 2.08145 -0.165765
Ar 1.60171 1.74856 2.33174
Ar -0.563524 -1.15906 3.70771
Ar 3.97523 2.13609 2.47436
Ar -1.60698 -0.00830228 1.89162
Ar 1.05924 1.77382 0.550073
Ar 2.52107 -1.00795 -1.38193
15

Ar -0.428422 0.789227 2.53523
Ar 3.91061 0.237477 0.150459
Ar 0.629732 -1.19991 1.75644
Ar 1.52101 3.02603 -0.656997
Ar 1.79449 -0.378785 0.0707611
Ar 3.49004 1.75367 0.915274
Ar 1.27538 0.518281 0.676205
Ar 0.350437 1.23704 1.58143
Ar 2.36185 2.08237 -0.174403
Ar 1.60641 1.7596 2.32001
Ar -0.60339 -1.17737 3.70461
Ar 3.98704 2.13103 2.50371
Ar -1.61009 -0.0161573 1.89694
Ar 1.06793 1.76986 0.539658
Ar 2.50874 -1.0061 -1.38378
15

Ar -0.438291 0.808073 2.54082
Ar 3.9539 0.224016 0.14326
Ar 0.629743 -1.19256 1.75563
Ar 1.53129 3.0296 -0.626561
Ar 1.80928 -0.375475 0.0727973
Ar 3.49914 1.75155 0.911417
Ar 1.2816 0.524252 0.64864
Ar 0.320691 1.23496 1.58386
Ar 2.34754 2.08302 -0.182951
Ar 1.61119 1.77052 2.30829
Ar -0.643034 -1.19557 3.7016
Ar 3.9987 2.12596 2.53333
Ar -1.61324 -0.0238379 1.9021
Ar 1.07665 1.7661 0.529106
Ar 2.49661 -1.00438 -1.38579
15

Ar -0.448266 0.826763 2.54656
Ar 3.9971 0.210529 0.136035
Ar 0.629848 -1.18492 1.75463
Ar 1.54091 3.03261 -0.59685
Ar 1.82453 -0.371595 0.0755628
Ar 3.50797 1.74955 0.907392
Ar 1.28784 0.53024 0.621214
Ar 0.291177 1.23263 1.58636
Ar 2.33318 2.08337 -0.191402
Ar 1.61604 1.78134 2.29658
Ar -0.682423 -1.21362 3.69867
Ar 0.0102265 2.12091 2.56322
Ar -1.61643 -0.031329 1.90709
Ar 1.08539 1.76255 0.518448
Ar 2.48468 -1.00277 -1.38797
15

Ar -0.458361 0.845279 2.55247
Ar 0.0401939 0.197006 0.128775
Ar 0.630027 -1.177 1.75348
Ar 1.54982 3.03497 -0.567947
Ar 1.8403 -0.367056 0.079139
Ar 3.5165 1.74769 0.90317
Ar 1.2941 0.536256 0.59394
Ar 0.261931 1.23002 1.58892
Ar 2.31876 2.08337 -0.199749
Ar 1.62096 1.79203 2.28485
Ar -0.721519 -1.23151 3.69584
Ar 0.0216626 2.1159 2.59333
Ar -1.61966 -0.0386147 1.91191
Ar 1.09413 1.7592 0.507709
Ar 2.47294 -1.00129 -1.3903
15

Ar -0.468588 0.86361 2.55856
Ar 0.0831614 0.183435 0.121472
Ar 0.630263 -1.16883 1.75217
Ar 1.55795 3.0366 -0.539925
Ar 1.85665 -0.361772 0.0835963
Ar 3.52471 1.74599 0.898719
Ar 1.30037 0.542314 0.566832
Ar 0.23299 1.22714 1.59157
Ar 2.30426 2.08298 -0.207989
Ar 1.62593 1.80261 2.27312
Ar -0.760274 -1.24921 3.69311
Ar 0.0330369 2.11095 2.62367
Ar -1.62292 -0.0456783 1.91654
Ar 1.10286 1.75606 0.496908
Ar 2.46137 -0.999958 -1.39281
15

Ar -0.478963 0.881746 2.56483
Ar 0.125979 0.169807 0.114118
Ar 0.630538 -1.16043 1.75074
Ar 1.56525 3.03743 -0.512839
Ar 1.87365 -0.355663 0.0889882
Ar 3.53258 1.74448 0.894004
Ar 1.30668 0.548428 0.539901
Ar 0.204388 1.22397 1.59431
Ar 2.28965 2.08215 -0.216117
Ar 1.63097 1.81306 2.26137
Ar -0.798636 -1.26667 3.69049
Ar 0.0443779 2.10607 2.65421
Ar -1.62622 -0.0525028 1.92097
Ar 1.11156 1.75314 0.486065
Ar 2.44998 -0.998769 -1.39547
15

Ar -0.4895 0.899678 2.5713
Ar 0.168619 0.156109 0.106703
Ar 0.63084 -1.15181 1.74918
Ar 1.57167 3.03741 -0.486723
Ar 1.89137 -0.348669 0.0953463
Ar 3.5401 1.74318 0.888987
Ar 1.31301 0.554612 0.513157
Ar 0.176155 1.22049 1.59716
Ar 2.2749 2.08081 -0.224132
Ar 1.63605 1.82339 2.24959
Ar -0.836543 -1.28387 3.68797
Ar 0.0557114 2.10127 2.68493
Ar -1.62956 -0.0590704 1.92519
Ar 1.12021 1.75045 0.475198
Ar 2.43874 -0.997736 -1.39829
15

Ar -0.500214 0.917399 2.57798
Ar 0.211049 0.142327 0.0992174
Ar 0.631153 -1.14298 1.74751
Ar 1.57715 3.03651 -0.461581
Ar 1.90985 -0.340752 0.102676
Ar 3.54725 1.74213 0.883632
Ar 1.31939 0.560884 0.486608
Ar 0.148316 1.2167 1.60013
Ar 2.25998 2.0789 -0.232032
Ar 1.64118 1.83359 2.23779
Ar -0.873924 -1.30078 3.68555
Ar 0.0670608 2.09657 2.71582
Ar -1.63293 -0.0653628 1.92918
Ar 1.1288 1.74798 0.464326
Ar 2.42766 -0.996868 -1.40126
15

Ar -0.511119 0.934902 2.58488
Ar 0.253235 0.128446 0.091651
Ar 0.631467 -1.13396 1.74575
Ar 1.58166 3.03474 -0.437392
Ar 1.92914 -0.331899 0.110958
Ar 3.55403 1.74133 0.877901
Ar 1.32584 0.567261 0.460258
Ar 0.120894 1.21257 1.60326
Ar 2.24482 2.07635 -0.23982
Ar 1.64634 1.84365 2.22594
Ar -0.910692 -1.31734 3.68324
Ar 0.0784467 2.09197 2.74687
Ar -1.63633 -0.0713615 1.93294
Ar 1.13731 1.74576 0.453469
Ar 2.41672 -0.996171 -1.40436
15

Ar -0.522229 0.952184 2.59202
Ar 0.295135 0.114446 0.0839928
Ar 0.631772 -1.12477 1.74389
Ar 1.58519 3.03213 -0.414107
Ar 1.94927 -0.32213 0.120145
Ar 3.56044 1.74082 0.871757
Ar 1.33237 0.573764 0.43411
Ar 0.0939048 1.20809 1.60655
Ar 2.22938 2.07308 -0.2475
Ar 1.65154 1.85358 2.21406
Ar -0.946753 -1.33351 3.68104
Ar 0.0898868 2.08749 2.77808
Ar -1.63976 -0.0770475 1.93645
Ar 1.14571 1.74378 0.442647
Ar 2.40591 -0.995656 -1.40758
15

Ar -0.533554 0.969242 2.59941
Ar 0.336703 0.100307 0.0762318
Ar 0.632058 -1.11541 1.74197
Ar 1.58773 3.02874 -0.391655
Ar 1.97025 -0.311489 0.130174
Ar 3.56648 1.74063 0.865168
Ar 1.339 0.580416 0.408165
Ar 0.0673576 1.20325 1.61003
Ar 2.21359 2.069 -0.255077
Ar 1.65676 1.86337 2.20212
Ar -0.982005 -1.34924 3.67893
Ar 0.101396 2.08312 2.80942
Ar -1.64322 -0.082402 1.93971
Ar 1.15399 1.74204 0.431882
Ar 2.39523 -0.995328 -1.41092
15

Ar -0.545105 0.986076 2.60705
Ar 0.377891 0.0860017 0.0683562
Ar 0.632317 -1.1059 1.73997
Ar 1.5893 3.02465 -0.36995
Ar 1.99208 -0.300044 0.140968
Ar 3.57216 1.74076 0.858105
Ar 1.34577 0.587241 0.382424
Ar 0.0412557 1.19803 1.6137
Ar 2.19737 2.06403 -0.262562
Ar 1.662 1.87301 2.19013
Ar -1.01634 -1.36446 3.67692
Ar 0.112987 2.07888 2.84089
Ar -1.64671 -0.087406 1.9427
Ar 1.16212 1.74056 0.421197
Ar 2.38467 -0.995196 -1.41435
15

Ar -0.556893 1.00269 2.61497
Ar 0.418645 0.0715012 0.0603545
Ar 0.632542 -1.09624 1.7379
Ar 1.58992 3.01999 -0.3489
Ar 2.01474 -0.28788 0.152442
Ar 3.57749 1.74124 0.850551
Ar 1.3527 0.594267 0.356883
Ar 0.015596 1.19243 1.61758
Ar 2.18066 2.05807 -0.269967
Ar 1.66725 1.8825 2.17808
Ar -1.04963 -1.37911 3.675
Ar 0.12467 2.07477 2.87248
Ar -1.65021 -0.092041 1.94541
Ar 1.17008 1.73933 0.410617
Ar 2.37422 -0.995268 -1.41786
15

Ar -0.568923 1.01908 2.62317
Ar 0.458907 0.0567781 0.0522155
Ar 0.632727 -1.08645 1.73578
Ar 1.58962 3.01486 -0.328406
Ar 2.03822 -0.27509 0.164515
Ar 3.58248 1.74206 0.842503
Ar 1.35983 0.601521 0.331538
Ar -0.00962995 1.18643 1.62166
Ar 2.16336 2.05103 -0.277309
Ar 1.67251 1.89184 2.16597
Ar -1.08178 -1.39313 3.67317
Ar 0.13645 2.07078 2.90416
Ar -1.65373 -0.0962891 1.94784
Ar 1.17785 1.73836 0.400169
Ar 2.36388 -0.995544 -1.42144
15

Ar -0.581201 1.03525 2.63166
Ar 0.498624 0.0417972 0.0439292
Ar 0.632866 -1.07653 1.7336
Ar 1.58844 3.00938 -0.308374
Ar 2.06247 -0.261769 0.177105
Ar 3.58718 1.74325 0.833959
Ar 1.36719 0.609032 0.30638
Ar -0.0344354 1.18005 1.62595
Ar 2.1454 2.04281 -0.284615
Ar 1.67777 1.90102 2.15377
Ar -1.11264 -1.40643 3.67143
Ar 0.148334 2.0669 2.93593
Ar -1.65726 -0.100133 1.94998
Ar 1.1854 1.73764 0.389883
Ar 2.35364 -0.996026 -1.42505
15

Ar -0.59373 1.0512 2.64045
Ar 0.537742 0.0265207 0.035487
Ar 0.632954 -1.06649 1.73138
Ar 1.58643 3.00368 -0.288716
Ar 2.08747 -0.248019 0.19014
Ar 3.59159 1.74479 0.824918
Ar 1.37483 0.616826 0.281399
Ar -0.0588394 1.17327 1.63043
Ar 2.12672 2.03333 -0.291915
Ar 1.68302 1.91003 2.14151
Ar -1.14213 -1.41896 3.66977
Ar 0.160313 2.06314 2.96778
Ar -1.6608 -0.103544 1.95181
Ar 1.1927 1.7372 0.379794
Ar 2.3435 -0.996717 -1.42869
15

Ar -0.606512 1.06695 2.64955
Ar 0.576211 0.0109085 0.0268827
Ar 0.632987 -1.05633 1.72912
Ar 1.58365 2.99786 -0.26935
Ar 2.11318 -0.233934 0.20356
Ar 3.59574 1.74668 0.815389
Ar 1.38277 0.62493 0.256581
Ar -0.082864 1.1661 1.63508
Ar 2.10729 2.02251 -0.29925
Ar 1.68826 1.91884 2.12915
Ar -1.17014 -1.43066 3.66819
Ar 0.172379 2.05949 2.99969
Ar -1.66435 -0.106501 1.95334
Ar 1.19971 1.73702 0.369941
Ar 2.33345 -0.997622 -1.43233
15

Ar -0.619543 1.08251 2.65896
Ar 0.613985 -0.00508022 0.0181132
Ar 0.632959 -1.04607 1.72683
Ar 1.58015 2.99202 -0.250214
Ar 2.13955 -0.219587 0.217312
Ar 3.59967 1.74891 0.805388
Ar 1.39106 0.633368 0.231909
Ar -0.106533 1.15856 1.63988
Ar 2.08706 2.01031 -0.306667
Ar 1.69347 1.92746 2.11671
Ar -1.1966 -1.44148 3.6667
Ar 0.18453 2.05595 3.03167
Ar -1.66789 -0.108988 1.95455
Ar 1.2064 1.73711 0.360366
Ar 2.3235 -0.998746 -1.43596
15

Ar -0.632818 1.09788 2.66869
Ar 0.651027 -0.0214825 0.0091787
Ar 0.632868 -1.03571 1.72452
Ar 1.57598 2.98625 -0.231251
Ar 2.16656 -0.205043 0.231354
Ar 3.60341 1.75147 0.794937
Ar 1.39971 0.642158 0.207364
Ar -0.129873 1.15065 1.64481
Ar 2.06604 1.99671 -0.314224
Ar 1.69866 1.93587 2.10417
Ar -1.22147 -1.4514 3.6653
Ar 0.196761 2.05252 3.06369
Ar -1.67144 -0.110995 1.95545
Ar 1.21272 1.73745 0.351122
Ar 2.31363 -1.00009 -1.43956
15

Ar -0.646331 1.11309 2.67875
Ar 0.687309 -0.0383281 8.32648e-05
Ar 0.632709 -1.02525 1.72219
Ar 1.5712 2.9806 -0.212408
Ar 2.19415 -0.19035 0.245651
Ar 3.60697 1.75433 0.784065
Ar 1.40875 0.65131 0.182922
Ar -0.152907 1.14239 1.64983
Ar 2.04427 1.9817 -0.321986
Ar 1.70382 1.94408 2.09153
Ar -1.24472 -1.4604 3.664
Ar 0.209063 2.04918 3.09574
Ar -1.67497 -0.112511 1.95603
Ar 1.21862 1.73805 0.342267
Ar 2.30385 -1.00165 -1.44312
15

Ar -0.660073 1.12815 2.68912
Ar 0.722812 -0.0556357 -0.00916522
Ar 0.632479 -1.0147 1.71985
Ar 1.56588 2.97513 -0.19364
Ar 2.22229 -0.175552 0.260173
Ar 3.61038 1.75748 0.772802
Ar 1.41818 0.660824 0.158559
Ar -0.17566 1.1338 1.65491
Ar 2.02182 1.96532 -0.33003
Ar 1.70893 1.95208 2.07878
Ar -1.26639 -1.4685 3.6628
Ar 0.221428 2.04593 3.12782
Ar -1.6785 -0.11353 1.9563
Ar 1.22404 1.73889 0.333869
Ar 2.29415 -1.00343 -1.4466
15

Ar -0.674035 1.14308 2.69981
Ar 0.757525 -0.0734077 -0.0185555
Ar 0.632176 -1.00406 1.71751
Ar 1.56007 2.96986 -0.174909
Ar 2.25095 -0.160679 0.274895
Ar 3.61368 1.7609 0.761182
Ar 1.428 0.670687 0.134248
Ar -0.198157 1.12489 1.66003
Ar 1.9988 1.94764 -0.338444
Ar 1.714 1.95985 2.06591
Ar -1.28651 -1.47574 3.66171
Ar 0.233846 2.04277 3.15991
Ar -1.68201 -0.114045 1.95625
Ar 1.22892 1.73995 0.326007
Ar 2.28453 -1.00543 -1.45001
15

Ar -0.688206 1.15788 2.71083
Ar 0.791445 -0.0916295 -0.0280735
Ar 0.631796 -0.99334 1.71516
Ar 1.55383 2.9648 -0.156184
Ar 2.28008 -0.145754 0.289797
Ar 3.61687 1.76455 0.749241
Ar 1.43822 0.680871 0.109962
Ar -0.220417 1.11568 1.66515
Ar 1.97532 1.92874 -0.347323
Ar 1.71902 1.96738 2.05291
Ar -1.30515 -1.48217 3.66074
Ar 0.246304 2.03969 3.19198
Ar -1.68551 -0.114055 1.9559
Ar 1.23318 1.74122 0.318774
Ar 2.27499 -1.00763 -1.45332
15

Ar -0.702573 1.17258 2.72215
Ar 0.824575 -0.110266 -0.0377039
Ar 0.631337 -0.982538 1.7128
Ar 1.54725 2.95996 -0.137437
Ar 2.30965 -0.130794 0.304861
Ar 3.61997 1.76843 0.737014
Ar 1.4488 0.691333 0.0856729
Ar -0.242461 1.1062 1.67024
Ar 1.95156 1.90874 -0.356772
Ar 1.72398 1.97469 2.03979
Ar -1.3224 -1.48785 3.65991
Ar 0.258787 2.03668 3.22404
Ar -1.68898 -0.113559 1.95524
Ar 1.23676 1.74269 0.312271
Ar 2.26553 -1.01004 -1.45652
15

Ar -0.717122 1.18719 2.73379
Ar 0.856926 -0.129261 -0.0474312
Ar 0.630796 -0.97166 1.71045
Ar 1.54038 2.95529 -0.118647
Ar 2.33962 -0.115813 0.32007
Ar 3.623 1.7725 0.72454
Ar 1.45972 0.702018 0.0613569
Ar -0.264308 1.09644 1.67527
Ar 1.92767 1.88775 -0.366906
Ar 1.72887 1.98174 2.02652
Ar -1.33835 -1.49285 3.6592
Ar 0.271274 2.03375 3.25605
Ar -1.69243 -0.11256 1.95428
Ar 1.23958 1.74435 0.306615
Ar 2.25615 -1.01263 -1.45961
15

Ar -0.731839 1.20171 2.7457
Ar 0.888504 -0.148534 -0.0572376
Ar 0.630172 -0.960707 1.7081
Ar 1.53331 2.95076 -0.099795
Ar 2.36996 -0.100823 0.335409
Ar 3.62597 1.77674 0.711869
Ar 1.47096 0.712853 0.0369919
Ar -0.285968 1.08644 1.68023
Ar 1.90382 1.8659 -0.377849
Ar 1.7337 1.98855 2.01311
Ar -1.3531 -1.49725 3.65864
Ar 0.283739 2.03088 3.28799
Ar -1.69586 -0.111066 1.95303
Ar 1.24155 1.74619 0.301929
Ar 2.24685 -1.01541 -1.46256
15

Ar -0.746706 1.21616 2.75788
Ar 0.919313 -0.167981 -0.0671109
Ar 0.629462 -0.949683 1.70575
Ar 1.52613 2.9463 -0.0808609
Ar 2.40064 -0.0858408 0.350863
Ar 3.62888 1.78114 0.699039
Ar 1.48248 0.723757 0.0125608
Ar -0.307448 1.07621 1.68509
Ar 1.88019 1.84335 -0.389725
Ar 1.73844 1.9951 1.99954
Ar -1.36676 -1.50111 3.65821
Ar 0.296159 2.02807 3.31985
Ar -1.69926 -0.109086 1.9515
Ar 1.24262 1.74819 0.298344
Ar 2.23763 -1.01834 -1.46539
15

Ar -0.761708 1.23055 2.77031
Ar 0.94935 -0.187475 -0.077047
Ar 0.628664 -0.93859 1.70341
Ar 1.51891 2.94182 -0.0618246
Ar 2.43163 -0.0708673 0.366418
Ar 3.63174 1.78567 0.686083
Ar 1.49424 0.734635 -0.0119472
Ar -0.328759 1.06576 1.68986
Ar 1.85693 1.82022 -0.402659
Ar 1.74309 2.00139 1.98581
Ar -1.37942 -1.5045 3.65793
Ar 0.30851 2.02533 3.35159
Ar -1.70263 -0.10663 1.9497
Ar 1.24273 1.75036 0.295985
Ar 2.2285 -1.02142 -1.46807
15

Ar -0.776823 1.24489 2.78298
Ar 0.978603 -0.206865 -0.0870501
Ar 0.627774 -0.927434 1.70108
Ar 1.51175 2.93721 -0.0426624
Ar 2.4629 -0.0559039 0.382062
Ar 3.63454 1.79032 0.673037
Ar 1.50622 0.745382 -0.0365322
Ar -0.349913 1.05511 1.6945
Ar 1.83415 1.79662 -0.416761
Ar 1.74764 2.0074 1.97191
Ar -1.39117 -1.5075 3.65778
Ar 0.320764 2.02265 3.3832
Ar -1.70598 -0.10371 1.94764
Ar 1.24186 1.7527 0.294968
Ar 2.21945 -1.02463 -1.4706
15

Ar -0.792031 1.25919 2.79588
Ar 1.00705 -0.225977 -0.0971353
Ar 0.626792 -0.916226 1.69875
Ar 1.50474 2.93234 -0.0233516
Ar 2.49443 -0.040951 0.397781
Ar 3.6373 1.79507 0.65993
Ar 1.51837 0.755884 -0.0611811
Ar -0.370921 1.04429 1.69902
Ar 1.81196 1.77268 -0.432127
Ar 1.7521 2.01314 1.95782
Ar -1.40209 -1.51015 3.65778
Ar 0.33289 2.02004 3.41463
Ar -1.70929 -0.100341 1.94534
Ar 1.23999 1.7552 0.295385
Ar 2.21048 -1.02795 -1.47298
15

Ar -0.807316 1.27344 2.80898
Ar 1.03467 -0.244626 -0.107331
Ar 0.625716 -0.904967 1.69645
Ar 1.49798 2.92707 -0.0038622
Ar 2.5262 -0.0260086 0.413562
Ar 3.64 1.79991 0.646797
Ar 1.53065 0.766011 -0.0858675
Ar -0.39179 1.0333 1.70342
Ar 1.79041 1.74854 -0.448825
Ar 1.75647 2.0186 1.94355
Ar -1.41225 -1.51251 3.65791
Ar 0.344857 2.0175 3.44586
Ar -1.71258 -0.0965364 1.94281
Ar 1.23717 1.75788 0.2973
Ar 2.20159 -1.03136 -1.47521
15

Ar -0.822658 1.28765 2.82228
Ar 1.06143 -0.262597 -0.117683
Ar 0.624546 -0.893659 1.69415
Ar 1.49156 2.92123 0.015859
Ar 2.55818 -0.0110768 0.429392
Ar 3.64264 1.8048 0.633667
Ar 1.54303 0.775622 -0.110555
Ar -0.41253 1.02217 1.70769
Ar 1.76954 1.72434 -0.4669
Ar 1.76073 2.02378 1.9291
Ar -1.42173 -1.51462 3.65817
Ar 0.35663 2.01503 3.47686
Ar -1.71584 -0.0923145 1.94006
Ar 1.23347 1.76072 0.30074
Ar 2.19279 -1.03483 -1.47729
15

Ar -0.838038 1.30183 2.83574
Ar 1.0873 -0.27967 -0.12825
Ar 0.623281 -0.882303 1.69187
Ar 1.48556 2.91465 0.0358807
Ar 2.59035 0.00384415 0.445259
Ar 3.6452 1.80976 0.620573
Ar 1.55548 0.784551 -0.135193
Ar -0.433146 1.01089 1.71184
Ar 1.74934 1.70025 -0.48637
Ar 1.76489 2.02867 1.91445
Ar -1.43057 -1.51651 3.65857
Ar 0.368172 2.01265 3.50757
Ar -1.71908 -0.0876929 1.93711
Ar 1.22898 1.76368 0.305696
Ar 2.18406 -1.03836 -1.4792
15

Ar -0.853438 1.31597 2.84935
Ar 1.11226 -0.295645 -0.13911
Ar 0.621919 -0.870899 1.68961
Ar 1.48006 2.90718 0.0562847
Ar 2.62269 0.0187533 0.461149
Ar 3.64767 1.81475 0.607545
Ar 1.56796 0.792611 -0.159711
Ar -0.453643 0.999492 1.71586
Ar 1.72978 1.67647 -0.507239
Ar 1.76895 2.03327 1.89961
Ar -1.43883 -1.51822 3.6591
Ar 0.379442 2.01036 3.53796
Ar -1.72229 -0.0826907 1.93398
Ar 1.22383 1.76674 0.312127
Ar 2.17541 -1.04191 -1.48096
15

Ar -0.868839 1.33008 2.86309
Ar 1.13631 -0.31035 -0.150348
Ar 0.620464 -0.859448 1.68736
Ar 1.47509 2.89868 0.0771617
Ar 2.6552 0.0336475 0.477051
Ar 3.65004 1.81977 0.594617
Ar 1.58043 0.799583 -0.184012
Ar -0.474022 0.987979 1.71977
Ar 1.71084 1.65324 -0.529508
Ar 1.77292 2.03758 1.88456
Ar -1.44655 -1.51977 3.65975
Ar 0.390401 2.00819 3.56798
Ar -1.7255 -0.0773274 1.93066
Ar 1.21814 1.76986 0.319971
Ar 2.16684 -1.04548 -1.48257
15

Ar -0.884221 1.34414 2.87695
Ar 1.15949 -0.323655 -0.162055
Ar 0.618919 -0.847951 1.68514
Ar 1.47067 2.88907 0.0986037
Ar 2.68784 0.0485239 0.492951
Ar 3.65229 1.82482 0.58182
Ar 1.59289 0.805221 -0.20798
Ar -0.494286 0.976367 1.72357
Ar 1.69244 1.63084 -0.553183
Ar 1.77678 2.0416 1.8693
Ar -1.45378 -1.52118 3.66053
Ar 0.401006 2.00614 3.59757
Ar -1.72868 -0.0716234 1.92719
Ar 1.21207 1.77297 0.329151
Ar 2.15835 -1.04903 -1.48402
15

Ar -0.899563 1.35817 2.8909
Ar 1.18182 -0.33549 -0.17431
Ar 0.617281 -0.836408 1.68294
Ar 1.46679 2.8783 0.120694
Ar 2.7206 0.0633766 0.508837
Ar 3.65439 1.82987 0.569187
Ar 1.60532 0.809255 -0.231468
Ar -0.514436 0.964668 1.72727
Ar 1.67452 1.60957 -0.578288
Ar 1.78055 2.04532 1.85383
Ar -1.46055 -1.52247 3.66143
Ar 0.411214 2.00423 3.62668
Ar -1.73186 -0.065599 1.92357
Ar 1.20575 1.776 0.339588
Ar 2.14993 -1.05256 -1.48532
15

Ar -0.914847 1.37214 2.90492
Ar 1.20339 -0.345854 -0.187178
Ar 0.615552 -0.824819 1.68077
Ar 1.46342 2.86643 0.143498
Ar 2.75348 0.0782023 0.524695
Ar 3.65632 1.83493 0.556754
Ar 1.61774 0.811406 -0.254317
Ar -0.534472 0.952896 1.73088
Ar 1.65699 1.58975 -0.604869
Ar 1.78423 2.04877 1.83815
Ar -1.46688 -1.52364 3.66246
Ar 0.420986 2.00248 3.65524
Ar -1.73504 -0.059275 1.91982
Ar 1.19931 1.77887 0.351209
Ar 2.14159 -1.05604 -1.48647
15

Ar -0.930054 1.38607 2.91899
Ar 1.22428 -0.35481 -0.200696
Ar 0.613732 -0.813186 1.67862
Ar 1.46051 2.85355 0.167054
Ar 2.78646 0.0929973 0.540506
Ar 3.65803 1.83997 0.544554
Ar 1.63019 0.811419 -0.276358
Ar -0.554393 0.941064 1.73442
Ar 1.63975 1.57169 -0.632982
Ar 1.78782 2.05193 1.82225
Ar -1.47281 -1.52472 3.6636
Ar 0.43028 2.00092 3.68318
Ar -1.73823 -0.0526723 1.91595
Ar 1.19289 1.78149 0.363951
Ar 2.13332 -1.05947 -1.48747
15

Ar -0.945166 1.39994 2.93309
Ar 1.24458 -0.362472 -0.214872
Ar 0.611819 -0.801508 1.6765
Ar 1.45798 2.83982 0.191368
Ar 2.81954 0.107757 0.556255
Ar 3.65948 1.845 0.532624
Ar 1.64274 0.809091 -0.29743
Ar -0.574195 0.92919 1.73788
Ar 1.62269 1.55565 -0.662685
Ar 1.79134 2.05481 1.80613
Ar -1.47836 -1.5257 3.66485
Ar 0.439062 1.99956 3.71041
Ar -1.74142 -0.0458117 1.91196
Ar 1.18659 1.78375 0.377767
Ar 2.12511 -1.06283 -1.48832
15

Ar -0.960165 1.41374 2.94722
Ar 1.26439 -0.368994 -0.229685
Ar 0.609815 -0.789785 1.67443
Ar 1.45578 2.82544 0.216421
Ar 2.85269 0.122476 0.571931
Ar 3.66063 1.85 0.521
Ar 1.65546 0.804319 -0.317411
Ar -0.593875 0.917293 1.74129
Ar 1.60566 1.54178 -0.694013
Ar 1.79478 2.05742 1.78981
Ar -1.48355 -1.52659 3.66623
Ar 0.447299 1.99842 3.73686
Ar -1.74464 -0.0387139 1.90788
Ar 1.18052 1.78556 0.392624
Ar 2.11697 -1.06612 -1.48903
15

Ar -0.975032 1.42747 2.96133
Ar 1.28379 -0.374548 -0.245094
Ar 0.607719 -0.778016 1.67239
Ar 1.45387 2.81063 0.242169
Ar 2.88593 0.137147 0.58752
Ar 3.66144 1.85497 0.509717
Ar 1.66845 0.797116 -0.336228
Ar -0.613427 0.905389 1.74466
Ar 1.58854 1.5301 -0.72696
Ar 1.79815 2.05976 1.77328
Ar -1.48841 -1.52738 3.66772
Ar 0.454965 1.99753 3.76243
Ar -1.74789 -0.0313998 1.90371
Ar 1.17479 1.78681 0.408505
Ar 2.1089 -1.06933 -1.48961
15

Ar -0.989752 1.44112 2.97543
Ar 1.30283 -0.379305 -0.261039
Ar 0.605531 -0.766201 1.6704
Ar 1.4522 2.79559 0.268551
Ar 2.91922 0.151763 0.603005
Ar 3.66186 1.85989 0.498813
Ar 1.68178 0.787616 -0.353869
Ar -0.632844 0.893497 1.74801
Ar 1.57119 1.52055 -0.76147
Ar 1.80147 2.06185 1.75655
Ar -1.49296 -1.52807 3.66933
Ar 0.462044 1.99691 3.78703
Ar -1.75117 -0.0238899 1.89945
Ar 1.16948 1.78739 0.425402
Ar 2.10088 -1.07245 -1.49006
15

Ar -1.00431 1.45467 2.98949
Ar 1.32159 -0.383433 -0.277453
Ar 0.603252 -0.75434 1.66845
Ar 1.45076 2.78054 0.295499
Ar 2.95258 0.166314 0.618371
Ar 3.66184 1.86477 0.488321
Ar 1.69551 0.776057 -0.370385
Ar -0.652119 0.881634 1.75137
Ar 1.55354 1.51291 -0.797435
Ar 1.80474 2.06368 1.73964
Ar -1.49722 -1.52867 3.67107
Ar 0.468526 1.99658 3.81057
Ar -1.75451 -0.0162049 1.89512
Ar 1.16466 1.78721 0.443318
Ar 2.09292 -1.07547 -1.4904
15

Ar -1.01868 1.46813 3.0035
Ar 1.34009 -0.387081 -0.294267
Ar 0.600881 -0.742432 1.66654
Ar 1.44954 2.76567 0.322939
Ar 2.986 0.180791 0.633599
Ar 3.66132 1.86958 0.478275
Ar 1.70966 0.762738 -0.385873
Ar -0.671244 0.869822 1.75474
Ar 1.53552 1.50695 -0.83471
Ar 1.80798 2.06528 1.72256
Ar -1.50121 -1.52915 3.67293
Ar 0.474417 1.99655 3.83296
Ar -1.7579 -0.00836543 1.89072
Ar 1.16038 1.78616 0.462258
Ar 2.08502 -1.0784 -1.49064
15

Ar -1.03286 1.48147 3.01744
Ar 1.35835 -0.390383 -0.311414
Ar 0.598418 -0.730476 1.66468
Ar 1.44854 2.75117 0.350802
Ar 3.01946 0.195182 0.648669
Ar 3.66024 1.87434 0.468701
Ar 1.72425 0.747982 -0.400457
Ar -0.690208 0.858083 1.75816
Ar 1.51709 1.50238 -0.873127
Ar 1.8112 2.06664 1.70533
Ar -1.50496 -1.52951 3.67493
Ar 0.479733 1.99685 3.85414
Ar -1.76136 -0.000392155 1.88626
Ar 1.15669 1.78414 0.482228
Ar 2.07717 -1.08123 -1.49079
15

Ar -1.04684 1.49468 3.03129
Ar 1.3764 -0.393455 -0.328831
Ar 0.595865 -0.718471 1.66287
Ar 1.44778 2.73718 0.37902
Ar 3.05296 0.209473 0.663557
Ar 3.65855 1.87903 0.459624
Ar 1.73926 0.732105 -0.414271
Ar -0.709 0.846442 1.76165
Ar 1.49826 1.49893 -0.912517
Ar 1.81443 2.06779 1.68796
Ar -1.50848 -1.52973 3.67706
Ar 0.484508 1.99748 3.87402
Ar -1.7649 0.00769351 1.88174
Ar 1.15361 1.78107 0.503227
Ar 2.06937 -1.08396 -1.49086
15

Ar -1.06059 1.50775 3.04504
Ar 1.39424 -0.396395 -0.346459
Ar 0.59322 -0.706418 1.6611
Ar 1.44727 2.72384 0.407528
Ar 3.08651 0.223651 0.678237
Ar 3.65619 1.88364 0.451063
Ar 1.75465 0.715393 -0.427443
Ar -0.72761 0.834923 1.76525
Ar 1.47904 1.49635 -0.952717
Ar 1.81767 2.06872 1.67048
Ar -1.51181 -1.52982 3.67934
Ar 0.488789 1.99845 3.89258
Ar -1.76854 0.0158704 1.87716
Ar 1.15114 1.77687 0.525245
Ar 2.06162 -1.08659 -1.49086
15

Ar -1.07411 1.52067 3.05866
Ar 1.41187 -0.399291 -0.364236
Ar 0.590484 -0.694314 1.65938
Ar 1.44703 2.71126 0.436269
Ar 3.1201 0.2377 0.692683
Ar 3.6531 1.88818 0.443033
Ar 1.77038 0.698094 -0.440088
Ar -0.746028 0.823554 1.76897
Ar 1.45945 1.49443 -0.993582
Ar 1.82095 2.06946 1.65294
Ar -1.51496 -1.52974 3.68176
Ar 0.492627 1.99978 3.90977
Ar -1.77229 0.0241171 1.87253
Ar 1.14925 1.77146 0.548257
Ar 2.05392 -1.08912 -1.49081
15

Ar -1.0874 1.5334 3.07215
Ar 1.42929 -0.402218 -0.382114
Ar 0.587657 -0.68216 1.65769
Ar 1.44707 2.69954 0.465189
Ar 3.15373 0.251606 0.706862
Ar 3.64926 1.89265 0.435542
Ar 1.78643 0.680419 -0.452305
Ar -0.764244 0.812364 1.77286
Ar 1.43951 1.49301 -1.03498
Ar 1.8243 2.07001 1.63537
Ar -1.51793 -1.52949 3.68434
Ar 0.496085 2.00147 3.92559
Ar -1.77617 0.032412 1.86785
Ar 1.14791 1.76479 0.572228
Ar 2.04627 -1.09156 -1.49071
15

Ar -1.10044 1.54594 3.08549
Ar 1.44648 -0.405241 -0.400054
Ar 0.58474 -0.669955 1.65604
Ar 1.44742 2.68876 0.494235
Ar 3.1874 0.265353 0.720744
Ar 3.64461 1.89703 0.428592
Ar 1.80276 0.662544 -0.464175
Ar -0.782248 0.801381 1.77695
Ar 1.41926 1.49196 -1.07682
Ar 1.82775 2.07038 1.6178
Ar -1.52075 -1.52904 3.68708
Ar 0.499248 2.0035 3.94003
Ar -1.78019 0.0407326 1.86311
Ar 1.14707 1.75682 0.597107
Ar 2.03866 -1.09392 -1.49059
15

Ar -1.11323 1.55826 3.09865
Ar 1.46343 -0.40842 -0.418019
Ar 0.581731 -0.657699 1.65444
Ar 1.44807 2.67897 0.523356
Ar 3.22112 0.278927 0.734296
Ar 3.63913 1.90134 0.42218
Ar 1.81935 0.644613 -0.475763
Ar -0.800034 0.790634 1.78129
Ar 1.39873 1.49116 -1.119
Ar 1.83134 2.07058 1.6003
Ar -1.52344 -1.52837 3.69
Ar 0.502206 2.00588 3.95314
Ar -1.78438 0.049056 1.85832
Ar 1.14665 1.7475 0.62283
Ar 2.0311 -1.09619 -1.49046
15

Ar -1.12576 1.57034 3.11161
Ar 1.48012 -0.411806 -0.435978
Ar 0.578632 -0.645391 1.65287
Ar 1.44903 2.67021 0.552486
Ar 3.2549 0.292315 0.747486
Ar 3.63282 1.90557 0.416297
Ar 1.83618 0.62675 -0.48712
Ar -0.817593 0.780154 1.78589
Ar 1.37793 1.49053 -1.16144
Ar 1.8351 2.07062 1.5829
Ar -1.52604 -1.52745 3.69311
Ar 0.505047 2.0086 3.96495
Ar -1.78875 0.0573584 1.85348
Ar 1.14657 1.73684 0.649319
Ar 2.02359 -1.0984 -1.49031
15

Ar -1.13802 1.58215 3.12435
Ar 1.49653 -0.415449 -0.453903
Ar 0.575444 -0.633031 1.65135
Ar 1.45029 2.66251 0.581569
Ar 3.28876 0.305508 0.760288
Ar 3.62566 1.90973 0.41093
Ar 1.85322 0.609059 -0.498287
Ar -0.834919 0.769966 1.79081
Ar 1.35688 1.49002 -1.2041
Ar 1.83908 2.0705 1.56568
Ar -1.52855 -1.52627 3.69644
Ar 0.507859 2.01164 3.97553
Ar -1.79333 0.0656152 1.84858
Ar 1.14674 1.72484 0.676487
Ar 2.01613 -1.10054 -1.49018
15

Ar -1.15002 1.59365 3.13686
Ar 1.51265 -0.419388 -0.471767
Ar 0.572165 -0.62062 1.64987
Ar 1.45181 2.65588 0.610552
Ar 3.3227 0.318497 0.772676
Ar 3.61767 1.91382 0.406062
Ar 1.87048 0.591628 -0.509292
Ar -0.852005 0.760095 1.79606
Ar 1.33561 1.48957 -1.24691
Ar 1.84335 2.07023 1.54871
Ar -1.53102 -1.52478 3.7
Ar 0.510718 2.01499 3.98493
Ar -1.79814 0.0737986 1.84362
Ar 1.14708 1.71151 0.704237
Ar 2.00872 -1.10263 -1.49006
15

Ar -1.16174 1.60483 3.1491
Ar 1.52845 -0.423659 -0.489546
Ar 0.568798 -0.608157 1.64844
Ar 1.45358 2.65033 0.639374
Ar 3.35675 0.331282 0.784634
Ar 3.60886 1.91784 0.401672
Ar 1.88795 0.574537 -0.520158
Ar -0.86884 0.750566 1.80166
Ar 1.31413 1.48915 -1.28984
Ar 1.84798 2.06982 1.53207
Ar -1.53345 -1.52297 3.70381
Ar 0.513693 2.01862 3.99325
Ar -1.80322 0.081864 1.8386
Ar 1.14747 1.69688 0.732469
Ar 2.00137 -1.10468 -1.48999
15

Ar -1.17318 1.61563 3.16106
Ar 1.5439 -0.428296 -0.507217
Ar 0.565343 -0.595643 1.64706
Ar 1.45554 2.64586 0.667969
Ar 3.39092 0.343864 0.796151
Ar 3.59927 1.9218 0.397737
Ar 1.90564 0.557852 -0.530902
Ar -0.885409 0.741396 1.80764
Ar 1.29244 1.48874 -1.33282
Ar 1.85304 2.06927 1.51585
Ar -1.53588 -1.5208 3.70789
Ar 0.51684 2.02252 0.000548293
Ar -1.80859 0.0897799 1.83352
Ar 1.14783 1.68099 0.76106
Ar 1.99407 -1.10671 -1.48998
15

Ar -1.18434 1.62604 3.17271
Ar 1.55898 -0.433329 -0.524758
Ar 0.561802 -0.583079 1.64573
Ar 1.45764 2.64247 0.696258
Ar 3.42524 0.35625 0.807228
Ar 3.58894 1.9257 0.394234
Ar 1.92354 0.541637 -0.541532
Ar -0.901696 0.732604 1.81399
Ar 1.27057 1.48829 -1.37583
Ar 1.85863 2.06858 1.50014
Ar -1.53833 -1.51824 3.71225
Ar 0.520202 2.02666 0.00692237
Ar -1.81428 0.0975179 1.82836
Ar 1.14805 1.66388 0.789906
Ar 1.98684 -1.10873 -1.49007
15

Ar -1.19522 1.636 3.18402
Ar 1.57366 -0.438782 -0.542147
Ar 0.558174 -0.570467 1.64444
Ar 1.45981 2.64016 0.724159
Ar 3.4597 0.368447 0.817874
Ar 3.57791 1.92955 0.39114
Ar 1.94168 0.525943 -0.552057
Ar -0.91768 0.724203 1.82071
Ar 1.24851 1.48781 -1.41881
Ar 1.86485 2.06771 1.48506
Ar -1.54081 -1.51525 3.71693
Ar 0.523809 2.03102 0.0124483
Ar -1.82034 0.105049 1.82312
Ar 1.14805 1.6456 0.81891
Ar 1.97968 -1.11076 -1.49026
15

Ar -1.20581 1.6455 3.19497
Ar 1.58791 -0.444672 -0.559362
Ar 0.554463 -0.557809 1.64321
Ar 1.46198 2.63895 0.751583
Ar 3.49433 0.380471 0.828103
Ar 3.56625 1.93336 0.388429
Ar 1.96005 0.510819 -0.562479
Ar -0.933334 0.716205 1.8278
Ar 1.22627 1.48728 -1.46176
Ar 1.87182 2.06663 1.47069
Ar -1.54335 -1.51181 3.72195
Ar 0.52768 2.03559 0.0172041
Ar -1.8268 0.112344 1.8178
Ar 1.14775 1.62619 0.847988
Ar 1.97259 -1.11282 -1.49058
15

Ar -1.21611 1.65449 3.20553
Ar 1.6017 -0.45101 -0.576381
Ar 0.55067 -0.545107 1.64204
Ar 1.46405 2.63886 0.778444
Ar 3.52912 0.392336 0.83794
Ar 3.554 1.93713 0.386081
Ar 1.97866 0.496303 -0.572799
Ar -0.948623 0.708623 1.83523
Ar 1.20385 1.48668 -1.50463
Ar 1.87965 2.06531 1.45714
Ar -1.54596 -1.50787 3.72731
Ar 0.531826 2.04034 0.0212634
Ar -1.83371 0.119373 1.81239
Ar 1.14707 1.60571 0.877062
Ar 1.96557 -1.11493 -1.49107
15

Ar -1.22612 1.66295 3.21569
Ar 1.61501 -0.457798 -0.59318
Ar 0.546796 -0.532364 1.64092
Ar 1.46593 2.63993 0.804654
Ar 3.56407 0.404058 0.847411
Ar 3.54123 1.94086 0.384075
Ar 1.99754 0.482437 -0.583015
Ar -0.963508 0.701466 1.84299
Ar 1.18126 1.48601 -1.54742
Ar 1.88848 2.06369 1.4445
Ar -1.54866 -1.50342 3.73304
Ar 0.536246 2.04526 0.0246949
Ar -1.84109 0.126107 1.80686
Ar 1.14595 1.5842 0.906071
Ar 1.95864 -1.11712 -1.49174
15

Ar -1.23585 1.67084 3.22542
Ar 1.62781 -0.465028 -0.609735
Ar 0.542845 -0.519584 1.63986
Ar 1.46752 2.64219 0.830132
Ar 3.59917 0.415656 0.856545
Ar 3.52799 1.94456 0.382394
Ar 2.0167 0.469258 -0.593123
Ar -0.977943 0.694743 1.85106
Ar 1.1585 1.48525 -1.59008
Ar 1.89841 2.06168 1.43281
Ar -1.55147 -1.49845 3.73915
Ar 0.540935 2.05031 0.0275619
Ar -1.849 0.132518 1.80122
Ar 1.14435 1.56172 0.934962
Ar 1.9518 -1.11942 -1.49264
15

Ar -1.24529 1.67814 3.23471
Ar 1.64008 -0.472684 -0.626019
Ar 0.538818 -0.506774 1.63886
Ar 1.4687 2.64568 0.854814
Ar 3.63442 0.427145 0.865373
Ar 3.51435 1.94823 0.381019
Ar 2.03613 0.456786 -0.60312
Ar -0.991879 0.688463 1.85942
Ar 1.13556 1.48441 -1.63259
Ar 1.90957 2.05922 1.42214
Ar -1.5544 -1.49292 3.74566
Ar 0.545883 2.0555 0.0299217
Ar -1.85747 0.13858 1.79545
Ar 1.14224 1.53832 0.963694
Ar 1.94505 -1.12185 -1.49378
15

Ar -1.25445 1.68482 3.24353
Ar 1.65179 -0.480739 -0.642004
Ar 0.534719 -0.493951 1.63793
Ar 1.46938 2.65045 0.878656
Ar 3.6698 0.438542 0.873923
Ar 3.50037 1.95187 0.379936
Ar 2.05585 0.44503 -0.612999
Ar -1.00527 0.682632 1.86803
Ar 1.11245 1.4835 -1.67491
Ar 1.92203 2.05622 1.41248
Ar -1.55745 -1.48683 3.75259
Ar 0.551075 2.06079 0.0318265
Ar -1.86654 0.14427 1.78953
Ar 1.13961 1.51407 0.992231
Ar 1.93841 -1.12444 -1.49521
15

Ar -1.26334 1.69088 3.25189
Ar 1.66293 -0.489156 -0.657658
Ar 0.530551 -0.481127 1.63707
Ar 1.46947 2.65653 0.901643
Ar 3.70529 0.449863 0.882221
Ar 3.48609 1.95549 0.379131
Ar 2.07587 0.433989 -0.622756
Ar -1.01806 0.677257 1.8769
Ar 1.08915 1.48251 -1.71698
Ar 1.93587 2.05261 1.40382
Ar -1.56064 -1.48016 3.75993
Ar 0.556496 2.06619 0.0333227
Ar -1.87624 0.149568 1.78345
Ar 1.13647 1.48904 1.02053
Ar 1.93187 -1.12724 -1.49697
15

Ar -1.27197 1.69631 3.25976
Ar 1.67348 -0.49789 -0.672948
Ar 0.526314 -0.468322 1.63629
Ar 1.4689 2.66392 0.92379
Ar 3.74086 0.461123 0.890291
Ar 3.47158 1.95909 0.378596
Ar 2.09619 0.423658 -0.632384
Ar -1.03022 0.67234 1.886
Ar 1.06567 1.48145 -1.75873
Ar 1.95111 2.04832 1.39609
Ar -1.56396 -1.4729 3.76769
Ar 0.562127 2.07166 0.034452
Ar -1.8866 0.154458 1.77719
Ar 1.13283 1.46331 1.04855
Ar 1.92545 -1.13029 -1.49908
15

Ar -1.28034 1.70109 3.26715
Ar 1.68344 -0.506882 -0.687838
Ar 0.522013 -0.455546 1.63559
Ar 1.46763 2.67259 0.945141
Ar 3.7765 0.472336 0.89815
Ar 3.45689 1.96266 0.378322
Ar 2.11681 0.414021 -0.641878
Ar -1.04169 0.667879 1.89533
Ar 1.042 1.48033 -1.80008
Ar 1.96775 2.04333 1.38921
Ar -1.56742 -1.46505 3.77587
Ar 0.567949 2.07721 0.0352512
Ar -1.89765 0.15893 1.77073
Ar 1.12875 1.43696 1.0762
Ar 1.91915 -1.13361 -1.50161
15

Ar -1.28847 1.70524 3.27406
Ar 1.69278 -0.516066 -0.702289
Ar 0.517649 -0.442809 1.63497
Ar 1.46563 2.68249 0.965763
Ar 3.81218 0.483514 0.905813
Ar 3.44208 1.9662 0.378304
Ar 2.13773 0.405058 -0.651232
Ar -1.05247 0.663874 1.90486
Ar 1.01811 1.47915 -1.84088
Ar 1.98575 2.03762 1.38308
Ar -1.57102 -1.45661 3.78448
Ar 0.573946 2.08282 0.0357531
Ar -1.90938 0.162979 1.76407
Ar 1.12429 1.41004 1.10338
Ar 1.91297 -1.13725 -1.50458
15

Ar -1.29638 1.70876 3.28048
Ar 1.7015 -0.52537 -0.716262
Ar 0.513224 -0.430126 1.63446
Ar 1.46293 2.69354 0.98574
Ar 3.84788 0.49467 0.91329
Ar 3.42718 1.96972 0.378537
Ar 2.15895 0.396741 -0.660441
Ar -1.06251 0.660315 1.91461
Ar 0.993985 1.47796 -1.88095
Ar 2.00504 2.03121 1.37757
Ar -1.57475 -1.4476 3.79349
Ar 0.580099 2.08848 0.0359865
Ar -1.92181 0.166605 1.75719
Ar 1.11951 1.3826 1.1299
Ar 1.90693 -1.14127 -1.50804
15

Ar -1.30408 1.71168 3.28643
Ar 1.70959 -0.534709 -0.729714
Ar 0.508739 -0.41751 1.63405
Ar 1.45955 2.70564 1.00516
Ar 3.88356 0.505813 0.920583
Ar 3.41226 1.97321 0.379019
Ar 2.18046 0.389041 -0.669501
Ar -1.07182 0.657188 1.92455
Ar 0.969577 1.47679 -1.92002
Ar 2.02552 2.02414 1.37257
Ar -1.5786 -1.43802 3.80291
Ar 0.586392 2.09418 0.0359768
Ar -1.93493 0.169815 1.75007
Ar 1.11452 1.35469 1.15551
Ar 1.90102 -1.14569 -1.51205
15

Ar -1.31159 1.714 3.29192
Ar 1.71707 -0.544002 -0.742604
Ar 0.504195 -0.404977 1.63377
Ar 1.45556 2.71868 1.02411
Ar 3.9192 0.516955 0.927692
Ar 3.39733 1.97666 0.379746
Ar 2.20226 0.381921 -0.678408
Ar -1.08038 0.654477 1.93468
Ar 0.944802 1.47573 -1.95771
Ar 2.04709 2.01647 1.36796
Ar -1.58258 -1.42791 3.81272
Ar 0.592807 2.09991 0.0357464
Ar -1.94871 0.17262 1.74272
Ar 1.10946 1.32629 1.17985
Ar 1.89525 -1.15057 -1.51664
15

Ar -1.31892 1.71576 3.29695
Ar 1.72392 -0.55317 -0.754894
Ar 0.499592 -0.392546 1.63361
Ar 1.45102 2.73253 1.04268
Ar 3.95476 0.528103 0.934612
Ar 3.38245 1.98007 0.380718
Ar 2.22433 0.375344 -0.687158
Ar -1.08822 0.652157 1.945
Ar 0.919528 1.47495 -1.99351
Ar 2.06963 2.00826 1.36367
Ar -1.58666 -1.41728 3.8229
Ar 0.59933 2.10567 0.0353085
Ar -1.96313 0.175036 1.73511
Ar 1.10452 1.29732 1.2024
Ar 1.88963 -1.15596 -1.52186
15

Ar -1.3261 1.71699 3.30156
Ar 1.73015 -0.562134 -0.766547
Ar 0.494928 -0.380236 1.6336
Ar 1.44601 2.74707 1.06092
Ar 3.99021 0.539262 0.94133
Ar 3.36765 1.98344 0.381932
Ar 2.24667 0.369271 -0.695748
Ar -1.09536 0.650206 1.95549
Ar 0.893549 1.47467 1.97323
Ar 2.093 1.99959 1.35959
Ar -1.59085 -1.40617 3.83345
Ar 0.605946 2.11146 0.0346679
Ar -1.97815 0.177081 1.72726
Ar 1.09997 1.26763 1.22255
Ar 1.88414 -1.16188 -1.52774
15

Ar -1.33314 1.71772 3.30574
Ar 1.73578 -0.57082 -0.777532
Ar 0.490201 -0.368068 1.63375
Ar 1.44059 2.7622 1.07889
Ar 0.0254958 0.550435 0.947827
Ar 3.35295 1.98677 0.383386
Ar 2.26927 0.363663 -0.704175
Ar -1.10182 0.648594 1.96615
Ar 0.86659 1.47523 1.9432
Ar 2.11711 1.99051 1.35567
Ar -1.59513 -1.39459 3.84435
Ar 0.612643 2.11726 0.0338392
Ar -1.99372 0.178776 1.71916
Ar 1.09616 1.23696 1.2396
Ar 1.8788 -1.16838 -1.53432
15

Ar -1.34007 1.71798 3.30953
Ar 1.74081 -0.579161 -0.787822
Ar 0.485406 -0.356066 1.63408
Ar 1.43482 2.7778 1.09664
Ar 0.0605665 0.561618 0.95408
Ar 3.3384 1.99003 0.385078
Ar 2.2921 0.358477 -0.712434
Ar -1.10764 0.647294 1.97696
Ar 0.83831 1.47704 1.917
Ar 2.14182 1.9811 1.35186
Ar -1.59949 -1.38258 3.85558
Ar 0.619408 2.12307 0.0328355
Ar 1.99021 0.180144 1.71082
Ar 1.09351 1.20498 1.25297
Ar 1.87361 -1.17549 -1.54162
15

Ar -1.34689 1.71781 3.31293
Ar 1.74526 -0.587098 -0.797402
Ar 0.480537 -0.344253 1.63459
Ar 1.42877 2.7938 1.1142
Ar 0.0953577 0.572803 0.960054
Ar 3.32401 1.99324 0.387005
Ar 2.31517 0.353675 -0.720523
Ar -1.11285 0.646275 1.9879
Ar 0.808388 1.48053 1.89496
Ar 2.16705 1.9714 1.34813
Ar -1.60392 -1.37017 3.86712
Ar 0.62623 2.1289 0.0316684
Ar 1.97371 0.181205 1.70224
Ar 1.09241 1.17137 1.26232
Ar 1.86855 -1.18323 -1.54966
15

Ar -1.35363 1.71724 3.31597
Ar 1.74915 -0.594583 -0.806265
Ar 0.475584 -0.332654 1.63532
Ar 1.42248 2.8101 1.13157
Ar 0.129797 0.583973 0.965707
Ar 3.30982 1.99639 0.389161
Ar 2.33846 0.349217 -0.728438
Ar -1.1175 0.645511 1.99896
Ar 0.776632 1.48595 1.87699
Ar 2.19271 1.96147 1.34445
Ar -1.60843 -1.35739 3.87896
Ar 0.6331 2.13473 0.030348
Ar 1.95684 0.181979 1.69345
Ar 1.09313 1.13593 1.26779
Ar 1.86362 -1.19161 -1.55843
15

Ar -1.36031 1.71631 3.31867
Ar 1.75249 -0.601576 -0.814416
Ar 0.470535 -0.321297 1.63627
Ar 1.416 2.82663 1.14877
Ar 0.163794 0.595102 0.970989
Ar 3.29586 1.99947 0.391541
Ar 2.36196 0.345065 -0.736172
Ar -1.12161 0.644974 2.01011
Ar 0.743044 1.49337 1.86257
Ar 2.21871 1.95134 1.34081
Ar -1.61299 -1.34425 3.89108
Ar 0.640008 2.14057 0.0288838
Ar 1.93967 0.182482 1.68447
Ar 1.09578 1.09871 1.26989
Ar 1.85882 -1.20066 -1.56793
15

Ar -1.36692 1.71505 3.32105
Ar 1.75531 -0.608052 -0.82187
Ar 0.465375 -0.310207 1.63747
Ar 1.40937 2.84334 1.1658
Ar 0.197233 0.606152 0.975836
Ar 3.28215 2.00247 0.394137
Ar 2.38564 0.341182 -0.743714
Ar -1.12522 0.644641 2.02134
Ar 0.707811 1.50266 1.85101
Ar 2.24499 1.94105 1.3372
Ar -1.6176 -1.3308 3.90347
Ar 0.646937 2.14642 0.0272842
Ar 1.92226 0.182725 1.67531
Ar 1.10029 1.05997 1.26935
Ar 1.85415 -1.21036 -1.57814
15

Ar -1.37347 1.7135 3.32313
Ar 1.75763 -0.613995 -0.828649
Ar 0.460085 -0.299409 1.63893
Ar 1.4026 2.86017 1.18266
Ar 0.229963 0.617072 0.980171
Ar 3.26872 2.00539 0.396937
Ar 2.40951 0.33753 -0.751056
Ar -1.12838 0.644488 2.03261
Ar 0.671221 1.51352 1.84159
Ar 2.27148 1.93062 1.33363
Ar -1.62226 -1.31704 3.91611
Ar 0.653872 2.15227 0.0255576
Ar 1.90469 0.182713 1.666
Ar 1.10652 1.02012 1.26695
Ar 1.84959 -1.2207 -1.58902
15

Ar -1.37998 1.71168 3.32492
Ar 1.75946 -0.619398 -0.834772
Ar 0.454644 -0.288927 1.64067
Ar 1.39573 2.87707 1.19931
Ar 0.261794 0.627803 0.983902
Ar 3.25559 2.00823 0.399928
Ar 2.43355 0.334076 -0.75819
Ar -1.1311 0.644496 2.04391
Ar 0.633581 1.52566 1.83371
Ar 2.29813 1.92009 1.3301
Ar -1.62696 -1.30301 3.92899
Ar 0.660807 2.15812 0.0237125
Ar 1.88705 0.18244 1.65658
Ar 1.11433 0.979598 1.26331
Ar 1.84516 -1.23169 -1.60053
15

Ar -1.38645 1.70963 3.32644
Ar 1.76084 -0.624265 -0.840276
Ar 0.449025 -0.278784 1.6427
Ar 1.38876 2.89401 1.21573
Ar 0.29248 0.638278 0.98692
Ar 3.24278 2.01099 0.403091
Ar 2.45774 0.330785 -0.765104
Ar -1.13342 0.644646 2.0552
Ar 0.595159 1.5388 1.82694
Ar 2.32488 1.90945 1.32661
Ar -1.6317 -1.28872 3.9421
Ar 0.667736 2.16397 0.0217561
Ar 1.86942 0.181889 1.64709
Ar 1.12369 0.938838 1.25896
Ar 1.84084 -1.24328 -1.61262
15

Ar -1.39291 1.70737 3.32769
Ar 1.76178 -0.628606 -0.845209
Ar 0.443203 -0.269 1.64504
Ar 1.3817 2.91094 1.23191
Ar 0.321726 0.648438 0.989103
Ar 3.23032 2.01366 0.406402
Ar 2.48207 0.327625 -0.771783
Ar -1.13538 0.644923 2.06646
Ar 0.556174 1.55273 1.82096
Ar 2.35171 1.89874 1.3232
Ar -1.63647 -1.27417 3.95543
Ar 0.674655 2.16983 0.0196949
Ar 1.85192 0.181029 1.63759
Ar 1.13463 0.898216 1.25426
Ar 1.83663 -1.25547 -1.62521
15

Ar -1.39937 1.70493 3.32869
Ar 1.76231 -0.632437 -0.84962
Ar 0.437147 -0.259592 1.64771
Ar 1.37457 2.92782 1.24782
Ar 0.349188 0.658242 0.990315
Ar 3.21824 2.01624 0.409836
Ar 2.50654 0.324563 -0.77821
Ar -1.13698 0.645314 2.07764
Ar 0.516781 1.56727 1.81558
Ar 2.37855 1.88795 1.31991
Ar -1.64127 -1.2594 3.96896
Ar 0.681557 2.17568 0.0175349
Ar 1.83468 0.179804 1.62814
Ar 1.14729 0.858071 1.24947
Ar 1.83253 -1.26822 -1.63824
15

Ar -1.40582 1.70234 3.32944
Ar 1.76245 -0.63578 -0.853562
Ar 0.430825 -0.250569 1.65071
Ar 1.36737 2.94461 1.26343
Ar 0.374499 0.667686 0.99042
Ar 3.20656 2.01874 0.413361
Ar 2.53111 0.32157 -0.784365
Ar -1.13827 0.645812 2.08873
Ar 0.47709 1.58232 1.81068
Ar 2.40539 1.87709 1.31674
Ar -1.6461 -1.2444 3.9827
Ar 0.68844 2.18153 0.0152819
Ar 1.81784 0.178133 1.61883
Ar 1.16183 0.81867 1.24478
Ar 1.82856 -1.2815 -1.65164
15

Ar -1.41229 1.6996 3.32996
Ar 1.76221 -0.638659 -0.857088
Ar 0.424202 -0.241939 1.65406
Ar 1.36008 2.96129 1.27872
Ar 0.397316 0.676817 0.989298
Ar 3.1953 2.02115 0.416944
Ar 2.55579 0.318614 -0.790224
Ar -1.13924 0.646409 2.09969
Ar 0.437178 1.5978 1.80617
Ar 2.43217 1.86617 1.31374
Ar -1.65095 -1.2292 3.99663
Ar 0.6953 2.18737 0.0129413
Ar 1.80162 0.175892 1.60978
Ar 1.17838 0.780223 1.24027
Ar 1.82471 -1.29531 -1.66533
15

Ar -1.41877 1.69675 3.33026
Ar 1.76162 -0.6411 -0.860248
Ar 0.417245 -0.233701 1.65775
Ar 1.35271 2.97784 1.29366
Ar 0.417378 0.68574 0.986861
Ar 3.18448 2.02349 0.420542
Ar 2.58057 0.315666 -0.795764
Ar -1.13994 0.647101 2.11047
Ar 0.397104 1.61363 1.80198
Ar 2.45886 1.85519 1.31094
Ar -1.65582 -1.21379 0.0107413
Ar 0.702132 2.19321 0.0105179
Ar 1.78625 0.172904 1.60114
Ar 1.19696 0.742915 1.23595
Ar 1.82099 -1.3096 -1.67925
15

Ar -1.42528 1.6938 3.33036
Ar 1.76069 -0.643129 -0.863092
Ar 0.409923 -0.225849 1.6618
Ar 1.34524 2.99422 1.30821
Ar 0.434555 0.6946 0.983075
Ar 3.17415 2.02576 0.424108
Ar 2.60543 0.312696 -0.800956
Ar -1.14036 0.647889 2.12104
Ar 0.356914 1.62978 1.79808
Ar 2.48541 1.84413 1.30837
Ar -1.66071 -1.19818 0.0250378
Ar 0.708934 2.19904 0.00801642
Ar 1.77209 0.16891 1.59314
Ar 1.21739 0.706946 1.23166
Ar 1.81741 -1.32437 -1.69332
15

Ar -1.43182 1.69077 3.33026
Ar 1.75944 -0.644774 -0.865666
Ar 0.402205 -0.21837 1.66621
Ar 1.33767 3.01042 1.32236
Ar 0.448876 0.703557 0.977959
Ar 3.16431 2.02798 0.427588
Ar 2.63037 0.309676 -0.80577
Ar -1.14054 0.648772 2.13137
Ar 0.316632 1.6462 1.79444
Ar 2.51177 1.83301 1.30608
Ar -1.66562 -1.18239 0.0395101
Ar 0.715704 2.20486 0.00544126
Ar 1.75954 0.163553 1.58609
Ar 1.23924 0.672587 1.22713
Ar 1.81398 -1.33959 -1.70747
15

Ar -1.43839 1.68766 3.32999
Ar 1.7579 -0.646061 -0.868011
Ar 0.394066 -0.211245 1.67097
Ar 1.32997 3.02641 1.33608
Ar 0.460504 0.712758 0.971583
Ar 3.155 2.03016 0.430922
Ar 2.65538 0.306576 -0.810172
Ar -1.14047 0.649756 2.14141
Ar 0.27628 1.66286 1.79103
Ar 2.53793 1.82179 1.30412
Ar -1.67054 -1.16643 0.0541534
Ar 0.722437 2.21066 0.00279649
Ar 1.74915 0.156351 1.58042
Ar 1.26184 0.640232 1.22189
Ar 1.81071 -1.35525 -1.72164
15

Ar -1.44501 1.68451 3.32956
Ar 1.75607 -0.647015 -0.870167
Ar 0.385485 -0.204446 1.67609
Ar 1.32214 3.04217 1.34934
Ar 0.469694 0.722318 0.964051
Ar 3.14624 2.03233 0.434046
Ar 2.68045 0.303369 -0.814128
Ar -1.14017 0.650837 2.15113
Ar 0.235874 1.67973 1.78782
Ar 2.56383 1.81048 1.30253
Ar -1.67549 -1.15028 0.0689632
Ar 0.729132 2.21646 8.59142e-05
Ar 1.74155 0.146714 1.57667
Ar 1.28434 0.610422 1.21534
Ar 1.80762 -1.37134 -1.73578
15

Ar -1.45167 1.6813 3.32898
Ar 1.75398 -0.647661 -0.872166
Ar 0.376447 -0.197946 1.68154
Ar 1.31415 3.05766 1.36213
Ar 0.476736 0.732309 0.955481
Ar 3.13804 2.03449 0.436888
Ar 2.70559 0.300025 -0.817601
Ar -1.13967 0.652022 2.16047
Ar 0.195431 1.6968 1.78481
Ar 2.58945 1.79905 1.30138
Ar -1.68044 -1.13396 0.0839352
Ar 0.735787 2.22224 -0.00268694
Ar 1.73737 0.134008 1.57547
Ar 1.30585 0.58377 1.20675
Ar 1.80471 -1.38787 -1.74984
15

Ar -1.45837 1.67806 3.32825
Ar 1.75163 -0.648023 -0.874039
Ar 0.366943 -0.191712 1.68733
Ar 1.30597 3.07285 1.37444
Ar 0.48191 0.742767 0.94599
Ar 3.13043 2.03669 0.439377
Ar 2.7308 0.29652 -0.820554
Ar -1.13896 0.653321 2.16942
Ar 0.154966 1.71404 1.78197
Ar 2.61476 1.78749 1.30071
Ar -1.6854 -1.11748 0.0990652
Ar 0.742399 2.22801 -0.00551882
Ar 1.73709 0.117707 1.57745
Ar 1.32562 0.560816 1.19544
Ar 1.80198 -1.40482 -1.76378
15

Ar -1.46513 1.6748 3.32739
Ar 1.74905 -0.648122 -0.875811
Ar 0.356972 -0.185709 1.69343
Ar 1.29758 3.08768 1.38626
Ar 0.485461 0.753705 0.935688
Ar 3.1234 2.03895 0.441439
Ar 2.75608 0.292826 -0.822953
Ar -1.13806 0.654745 2.17792
Ar 0.1145 1.73143 1.7793
Ar 2.63973 1.77578 1.30059
Ar -1.69038 -1.10083 0.114349
Ar 0.748967 2.23377 -0.00840672
Ar 1.74088 0.0975866 1.583
Ar 1.34328 0.541824 1.18091
Ar 1.79946 -1.42219 -1.77757
15

Ar -1.47195 1.67151 3.32642
Ar 1.74624 -0.647979 -0.877504
Ar 0.346538 -0.179902 1.69984
Ar 1.28895 3.10212 1.39758
Ar 0.48759 0.765116 0.924672
Ar 3.11697 2.04131 0.443
Ar 2.78142 0.288918 -0.824763
Ar -1.137 0.656308 2.18594
Ar 0.0740527 1.74897 1.7768
Ar 2.66432 1.76389 1.30106
Ar -1.69535 -1.08403 0.129782
Ar 0.75549 2.23951 -0.0113479
Ar 1.7485 0.0738412 1.59219
Ar 1.35887 0.526658 1.16305
Ar 1.79713 -1.43999 -1.79118
15

Ar -1.47883 1.66821 3.32533
Ar 1.74322 -0.647613 -0.879134
Ar 0.335649 -0.174256 1.70654
Ar 1.28002 3.1161 1.4084
Ar 0.488464 0.776987 0.913028
Ar 3.11113 2.04379 0.443995
Ar 2.80684 0.284774 -0.82596
Ar -1.13577 0.658021 2.19346
Ar 0.0336517 1.76663 1.77444
Ar 2.68852 1.75179 1.30218
Ar -1.70033 -1.06707 0.145359
Ar 0.761967 2.24523 -0.0143397
Ar 1.75942 0.0470375 1.60473
Ar 1.37282 0.514823 1.14211
Ar 1.795 -1.45821 -1.80461
15

Ar -1.48577 1.6649 3.32414
Ar 1.74001 -0.647044 -0.880715
Ar 0.324318 -0.168736 1.71351
Ar 1.27075 3.12954 1.41872
Ar 0.488215 0.789298 0.900833
Ar 3.10587 2.04643 0.444363
Ar 2.83235 0.280374 -0.826517
Ar -1.13441 0.659896 2.20045
Ar -0.00667202 1.78442 1.77225
Ar 2.7123 1.73947 1.30397
Ar -1.70531 -1.04996 0.161075
Ar 0.768396 2.25094 -0.0173799
Ar 1.77301 0.0179365 1.62011
Ar 1.38565 0.505643 1.11857
Ar 1.79307 -1.47686 -1.81784
15

Ar -1.49277 1.66158 3.32286
Ar 1.73661 -0.646287 -0.882263
Ar 0.312561 -0.163311 1.72074
Ar 1.26107 3.14238 1.42854
Ar 0.486961 0.802026 0.888156
Ar 3.10118 2.04925 0.444056
Ar 2.85796 0.275698 -0.826413
Ar -1.13294 0.661943 2.2069
Ar -0.0468795 1.80232 1.77022
Ar 2.73564 1.7269 1.30646
Ar -1.71029 -1.03271 0.176925
Ar 0.774777 2.25664 -0.0204663
Ar 1.78868 -0.0126951 1.63773
Ar 1.39789 0.498437 1.093
Ar 1.79134 -1.49593 -1.83088
15

Ar -1.49984 1.65826 3.32148
Ar 1.73304 -0.64536 -0.883789
Ar 0.300395 -0.157951 1.7282
Ar 1.25091 3.15455 1.43785
Ar 0.484804 0.815144 0.875061
Ar 3.09702 2.05229 0.443036
Ar 2.88367 0.270733 -0.825634
Ar -1.13136 0.66417 2.21278
Ar -0.0869223 1.82034 1.76836
Ar 2.75852 1.71405 1.30963
Ar -1.71526 -1.01531 0.192888
Ar 0.781107 2.26232 -0.0235969
Ar 1.80597 -0.0442012 1.6571
Ar 1.40995 0.492633 1.06589
Ar 1.78978 -1.51541 -1.84372
15

Ar -1.50698 1.65494 3.32003
Ar 1.72931 -0.644278 -0.885296
Ar 0.287836 -0.152632 1.73589
Ar 1.24019 3.16597 1.44665
Ar 0.481838 0.828623 0.861604
Ar 3.09336 2.05556 0.441284
Ar 2.90952 0.265468 -0.824174
Ar -1.1297 0.666581 2.21812
Ar -0.126739 1.83847 1.7667
Ar 2.7809 1.7009 1.31349
Ar -1.72022 -0.997788 0.208954
Ar 0.787385 2.26799 -0.0267697
Ar 1.8246 -0.0760724 1.67779
Ar 1.42209 0.487787 1.03765
Ar 1.78839 -1.53528 -1.85636
15

Ar -1.5142 1.65161 3.31851
Ar 1.72543 -0.643056 -0.886786
Ar 0.274905 -0.14733 1.74378
Ar 1.22885 3.17662 1.45493
Ar 0.478151 0.842433 0.847837
Ar 3.09017 2.05908 0.438793
Ar 2.93549 0.259897 -0.822034
Ar -1.12799 0.669178 2.2229
Ar -0.166252 1.85674 1.76525
Ar 2.80275 1.68745 1.31797
Ar -1.72517 -0.980133 0.225114
Ar 0.793612 2.27365 -0.0299831
Ar 1.84437 -0.107942 1.6995
Ar 1.4345 0.483586 1.00858
Ar 1.78716 -1.55554 -1.86882
15

Ar -1.52148 1.64829 3.31694
Ar 1.7214 -0.641708 -0.888256
Ar 0.26162 -0.142006 1.75186
Ar 1.21681 3.18648 1.46269
Ar 0.473824 0.856545 0.833805
Ar 3.0874 2.06287 0.435571
Ar 2.96162 0.254019 -0.819224
Ar -1.12624 0.671957 2.22715
Ar -0.205361 1.87513 1.76408
Ar 2.824 1.67365 1.32299
Ar -1.7301 -0.962355 0.241361
Ar 0.79979 2.27928 -0.0332354
Ar 1.86518 -0.139563 1.72202
Ar 1.44724 0.479817 0.978904
Ar 1.78607 -1.57617 -1.8811
15

Ar -1.52884 1.64496 3.31533
Ar 1.71725 -0.640246 -0.889701
Ar 0.248002 -0.13664 1.76011
Ar 1.20403 3.19555 1.46993
Ar 0.468936 0.870926 0.819548
Ar 3.08501 2.06693 0.431641
Ar 2.98791 0.247834 -0.815759
Ar -1.12447 0.674911 2.23089
Ar -0.243936 1.8937 1.76323
Ar 2.84456 1.65949 1.32844
Ar -1.73502 -0.944461 0.257685
Ar 0.805921 2.28491 -0.0365254
Ar 1.88696 -0.170789 1.7452
Ar 1.46037 0.476334 0.948771
Ar 1.78509 -1.59716 -1.89324
15

Ar -1.53628 1.64164 3.31369
Ar 1.71297 -0.638683 -0.891114
Ar 0.234068 -0.131217 1.76853
Ar 1.19049 3.20389 1.47666
Ar 0.463557 0.885546 0.805101
Ar 3.08296 2.07125 0.427033
Ar 3.01438 0.241348 -0.811664
Ar -1.12271 0.67803 2.23416
Ar -0.281807 1.91249 1.76279
Ar 2.86432 1.64491 1.33417
Ar -1.73991 -0.926456 0.274078
Ar 0.812003 2.29051 -0.0398517
Ar 1.90966 -0.201551 1.7689
Ar 1.47387 0.473041 0.918291
Ar 1.7842 -1.61849 -1.90523
15

Ar -1.54378 1.63831 3.31203
Ar 1.70857 -0.63703 -0.892486
Ar 0.219833 -0.125725 1.7771
Ar 1.17618 3.21154 1.4829
Ar 0.457751 0.900375 0.790494
Ar 3.08121 2.07582 0.421787
Ar 3.04102 0.234568 -0.806965
Ar -1.12096 0.681299 2.23699
Ar -0.31879 1.9316 1.76286
Ar 2.88313 1.62984 1.34004
Ar -1.74478 -0.908349 0.290532
Ar 0.818035 2.29611 -0.0432129
Ar 1.93323 -0.231837 1.79304
Ar 1.48775 0.469875 0.887543
Ar 1.78338 -1.64015 -1.91711
15

Ar -1.55137 1.63497 3.31036
Ar 1.70405 -0.635297 -0.893805
Ar 0.205315 -0.120156 1.7858
Ar 1.16116 3.2186 1.48868
Ar 0.451574 0.915385 0.775752
Ar 3.07973 2.08065 0.415946
Ar 3.06784 0.227506 -0.801695
Ar -1.11924 0.6847 2.23943
Ar -0.354674 1.95116 1.76357
Ar 2.90082 1.61417 1.34583
Ar -1.74962 -0.890148 0.307039
Ar 0.824018 2.30169 -0.046608
Ar 1.95761 -0.261673 1.81754
Ar 1.50195 0.466797 0.856582
Ar 1.7826 -1.66212 -1.92888
15

Ar -1.55902 1.63164 3.30867
Ar 1.69943 -0.633493 -0.895058
Ar 0.190527 -0.114501 1.79464
Ar 1.14547 3.22514 1.49404
Ar 0.445079 0.930551 0.760898
Ar 3.07847 2.08572 0.409559
Ar 3.09486 0.220176 -0.795889
Ar -1.11757 0.688214 2.24152
Ar -0.389244 1.97135 1.76508
Ar 2.9172 1.59777 1.35134
Ar -1.75442 -0.871861 0.323589
Ar 0.82995 2.30726 -0.0500357
Ar 1.98273 -0.291108 1.84231
Ar 1.51646 0.463782 0.825451
Ar 1.78185 -1.68438 -1.94056
15

Ar -1.56675 1.62829 3.30697
Ar 1.69469 -0.631628 -0.896227
Ar 0.175484 -0.108754 1.80359
Ar 1.1292 3.23125 1.499
Ar 0.438315 0.945846 0.745949
Ar 3.07743 2.09101 0.402672
Ar 3.12206 0.212592 -0.789584
Ar -1.11596 0.691817 2.2433
Ar -0.422302 1.99236 1.76754
Ar 2.93211 1.58045 1.35633
Ar -1.75919 -0.853498 0.340174
Ar 0.835831 2.31281 -0.0534947
Ar 2.00851 -0.3202 1.8673
Ar 1.53124 0.460816 0.794182
Ar 1.7811 -1.70692 -1.95216
15

Ar -1.57455 1.62494 3.30527
Ar 1.68983 -0.629708 -0.897296
Ar 0.160199 -0.102912 1.81265
Ar 1.11243 3.23699 1.50362
Ar 0.431324 0.96125 0.73092
Ar 3.07657 2.09652 0.395332
Ar 3.14945 0.204772 -0.782816
Ar -1.1144 0.695486 2.24484
Ar -0.453709 2.01443 1.7711
Ar 2.94541 1.56202 1.36059
Ar -1.76391 -0.83507 0.356786
Ar 0.841662 2.31835 -0.0569841
Ar 2.03487 -0.349005 1.89243
Ar 1.54625 0.457895 0.762801
Ar 1.78034 -1.72972 -1.96371
15

Ar -1.58243 1.62157 3.30357
Ar 1.68487 -0.62774 -0.898248
Ar 0.144687 -0.0969691 1.82182
Ar 1.09526 3.24244 1.50794
Ar 0.424142 0.97674 0.715825
Ar 3.07587 2.10222 0.387583
Ar 3.17702 0.196731 -0.775621
Ar -1.11292 0.699194 2.24618
Ar -0.483418 2.03778 1.77585
Ar 2.95709 1.5423 1.36395
Ar -1.76858 -0.81659 0.373416
Ar 0.847442 2.32389 -0.0605024
Ar 2.06175 -0.377576 1.91764
Ar 1.56145 0.455019 0.73133
Ar 1.77955 -1.75276 -1.9752
15

Ar -1.59038 1.61819 3.30187
Ar 1.67978 -0.625728 -0.899063
Ar 0.12896 -0.0909247 1.83107
Ar 1.07775 3.24763 1.51199
Ar 0.416803 0.992299 0.700674
Ar 3.07532 2.1081 0.379468
Ar 3.20476 0.188488 -0.768033
Ar -1.11152 0.702916 2.24738
Ar -0.511493 2.06255 1.78183
Ar 2.96723 1.52116 1.36633
Ar -1.77319 -0.798071 0.390057
Ar 0.853172 2.32941 -0.0640484
Ar 2.08906 -0.405952 1.94288
Ar 1.57681 0.452193 0.699784
Ar 1.77871 -1.77602 -1.98665
15

Ar -1.5984 1.61479 3.30018
Ar 1.67457 -0.623676 -0.899723
Ar 0.113032 -0.0847773 1.84041
Ar 1.05999 3.25261 1.51582
Ar 0.409335 1.00791 0.685475
Ar 3.07491 2.11416 0.371026
Ar 3.23268 0.180059 -0.760085
Ar -1.11021 0.706623 2.24849
Ar -0.538096 2.0888 1.789
Ar 2.97599 1.49858 1.36768
Ar -1.77774 -0.779528 0.406703
Ar 0.858852 2.33492 -0.0676181
Ar 2.11676 -0.434167 1.96808
Ar 1.59229 0.449426 0.66818
Ar 1.7778 -1.79949 -1.99807
15

Ar -1.6065 1.61137 3.2985
Ar 1.66922 -0.621586 -0.900211
Ar 0.0969304 -0.078527 1.84983
Ar 1.04206 3.25741 1.51944
Ar 0.401763 1.02356 0.670238
Ar 3.07463 2.12038 0.362296
Ar 3.26075 0.171461 -0.751806
Ar -1.10898 0.71029 2.24956
Ar -0.563457 2.11649 1.79724
Ar 2.98363 1.47463 1.36806
Ar -1.78222 -0.760981 0.423347
Ar 0.864482 2.34043 -0.0712089
Ar 2.1448 -0.46225 1.99321
Ar 1.60786 0.446732 0.636529
Ar 1.77682 -1.82316 1.99053
15

Ar -1.61466 1.60792 3.29683
Ar 1.66372 -0.619458 -0.900511
Ar 0.0806796 -0.0721741 1.85931
Ar 1.024 3.26204 1.52288
Ar 0.39411 1.03923 0.654966
Ar 3.07445 2.12675 0.353311
Ar 3.28897 0.162709 -0.743222
Ar -1.10785 0.71389 2.25065
Ar -0.587823 2.1455 1.80642
Ar 2.99039 1.44947 1.36755
Ar -1.78661 -0.742449 0.439985
Ar 0.870062 2.34593 -0.0748194
Ar 2.17311 -0.490223 2.01822
Ar 1.6235 0.444126 0.604842
Ar 1.77573 -1.847 1.97913
15

Ar -1.6229 1.60444 3.29518
Ar 1.65807 -0.617289 -0.900611
Ar 0.0642933 -0.0657197 1.86885
Ar 1.00587 3.26651 1.52617
Ar 0.386395 1.05491 0.639667
Ar 3.07439 2.13326 0.344102
Ar 3.31734 0.153816 -0.734359
Ar -1.10683 0.717396 2.25181
Ar -0.611421 2.17565 1.81636
Ar 2.99652 1.42329 1.36624
Ar -1.79091 -0.723956 0.456614
Ar 0.875593 2.35142 -0.0784478
Ar 2.20168 -0.518108 2.0431
Ar 1.63917 0.441631 0.573127
Ar 1.77453 -1.871 1.96774
15

Ar -1.63122 1.60094 3.29354
Ar 1.65224 -0.615076 -0.900502
Ar 0.0477862 -0.0591661 1.87845
Ar 0.987712 3.27085 1.52932
Ar 0.378635 1.07059 0.624345
Ar 3.07442 2.13991 0.334698
Ar 3.34583 0.144802 -0.725236
Ar -1.10591 0.720783 2.2531
Ar -0.63444 2.20673 1.82692
Ar 3.00221 1.39632 1.36424
Ar -1.79512 -0.705528 0.473234
Ar 0.881076 2.3569 -0.0820925
Ar 2.23049 -0.545918 2.0678
Ar 1.65485 0.439268 0.54139
Ar 1.7732 -1.89515 1.95634
15

Ar -1.6396 1.59741 3.29193
Ar 1.64624 -0.612815 -0.90018
Ar 0.0311737 -0.052516 1.88808
Ar 0.969556 3.27504 1.53234
Ar 0.370844 1.08626 0.609003
Ar 3.07455 2.14668 0.325125
Ar 3.37446 0.135681 -0.715872
Ar -1.10511 0.724029 2.25458
Ar -0.657022 2.23857 1.83796
Ar 3.00761 1.36876 1.3616
Ar -1.7992 -0.687194 0.489846
Ar 0.886511 2.36238 -0.0857516
Ar 2.25952 -0.573668 2.09233
Ar 1.6705 0.437065 0.509634
Ar 1.77174 -1.91943 1.94493
15

Ar -1.64805 1.59385 3.29034
Ar 1.64004 -0.610502 -0.899646
Ar 0.0144723 -0.0457732 1.89775
Ar 0.951432 3.27911 1.53524
Ar 0.363035 1.10192 0.593644
Ar 3.07478 2.15356 0.315406
Ar 3.40319 0.126475 -0.706282
Ar -1.10443 0.727115 2.25629
Ar -0.679269 2.27099 1.84936
Ar 3.01284 1.3408 1.35837
Ar -1.80317 -0.668986 0.506456
Ar 0.891898 2.36785 -0.0894231
Ar 2.28877 -0.601366 2.11666
Ar 1.68611 0.435051 0.477861
Ar 1.77013 -1.94384 1.9335
15

Ar -1.65657 1.59026 3.28878
Ar 1.63365 -0.608129 -0.898907
Ar -0.00230087 -0.0389421 1.90745
Ar 0.933361 3.28305 1.53804
Ar 0.355221 1.11755 0.578272
Ar 3.07508 2.16054 0.305562
Ar 3.43204 0.117193 -0.696479
Ar -1.10389 0.730022 2.2583
Ar -0.701246 2.30385 1.86105
Ar 3.01797 1.31259 1.35459
Ar -1.80699 -0.65094 0.523072
Ar 0.897239 2.37332 -0.0931049
Ar 2.3182 -0.629015 2.1408
Ar 1.70165 0.43326 0.446066
Ar 1.76836 -1.96836 1.92205
15

Ar -1.66516 1.58664 3.28725
Ar 1.62705 -0.605691 -0.897972
Ar -0.0191276 -0.0320281 1.91716
Ar 0.915361 3.28686 1.54074
Ar 0.34741 1.13316 0.56289
Ar 3.07547 2.16762 0.295612
Ar 3.46098 0.107846 -0.686473
Ar -1.10349 0.732738 2.26066
Ar -0.722989 2.33702 1.87294
Ar 3.02307 1.28428 1.35026
Ar -1.81067 -0.633099 0.539706
Ar 0.902533 2.37878 -0.0967929
Ar 2.34781 -0.656616 2.16477
Ar 1.7171 0.431723 0.414245
Ar 1.76643 -1.99298 1.91056
15

Ar -1.67381 1.58299 3.28574
Ar 1.62025 -0.603179 -0.896859
Ar -0.0359887 -0.0250371 1.92687
Ar 0.897446 3.29055 1.54335
Ar 0.339613 1.14873 0.547498
Ar 3.07593 2.17479 0.285571
Ar 3.49001 0.098442 -0.676274
Ar -1.10324 0.735257 2.26342
Ar -0.744513 2.37039 1.88499
Ar 3.02816 1.25594 1.34537
Ar -1.81419 -0.615497 0.556372
Ar 0.907781 2.38423 -0.100483
Ar 2.37756 -0.684159 2.18856
Ar 1.73242 0.430476 0.382388
Ar 1.76434 1.98231 1.89904
15

Ar -1.68253 1.57932 3.28426
Ar 1.61324 -0.600589 -0.895587
Ar -0.0528644 -0.0179768 1.93658
Ar 0.879628 3.29411 1.54586
Ar 0.331838 1.16426 0.5321
Ar 3.07647 2.18205 0.275454
Ar 3.51913 0.0889876 -0.665888
Ar -1.10316 0.737575 2.26662
Ar -0.765811 2.40387 1.89713
Ar 3.03328 1.22767 1.33992
Ar -1.81753 -0.598168 0.573092
Ar 0.912982 2.38968 -0.104181
Ar 2.40742 -0.711623 2.21222
Ar 1.74762 0.42955 0.350481
Ar 1.76207 1.95752 1.88749
15

Ar -1.69131 1.57562 3.28282
Ar 1.60603 -0.597916 -0.894178
Ar -0.069734 -0.0108571 1.94627
Ar 0.861919 3.29754 1.54828
Ar 0.324089 1.17974 0.516697
Ar 3.07707 2.18941 0.265273
Ar 3.54833 0.0794894 -0.655322
Ar -1.10326 0.739697 2.2703
Ar -0.786853 2.43735 1.90933
Ar 3.03845 1.19951 1.33389
Ar -1.82071 -0.581143 0.589886
Ar 0.918139 2.39513 -0.107888
Ar 2.43732 -0.738969 2.23577
Ar 1.76266 0.428973 0.318508
Ar 1.75963 1.93266 1.87591
15

Ar -1.70016 1.57191 3.2814
Ar 1.59862 -0.595155 -0.892657
Ar -0.0865761 -0.00368618 1.95594
Ar 0.844326 3.30085 1.55062
Ar 0.316374 1.19518 0.50129
Ar 3.07773 2.19684 0.255044
Ar 3.5776 0.0699524 -0.644589
Ar -1.10355 0.741633 2.2745
Ar -0.807585 2.47073 1.92151
Ar 3.04367 1.1715 1.32728
Ar -1.8237 -0.564448 0.60678
Ar 0.923251 2.40057 -0.111599
Ar 2.46719 -0.766134 2.25927
Ar 1.77755 0.42877 0.286451
Ar 1.75702 1.90773 1.86429
15

Ar -1.70907 1.56817 3.28002
Ar 1.59104 -0.592305 -0.89105
Ar -0.103368 0.00352718 1.96558
Ar 0.826853 3.30404 1.55287
Ar 0.308697 1.21057 0.485882
Ar 3.07845 2.20436 0.244784
Ar 3.60694 0.060381 -0.633693
Ar -1.10405 0.743399 2.27925
Ar -0.82791 2.50385 1.93361
Ar 3.04896 1.14366 1.32008
Ar -1.82651 -0.548099 0.623799
Ar 0.928321 2.406 -0.115311
Ar 2.49691 -0.793017 2.28279
Ar 1.79227 0.428956 0.254295
Ar 1.75424 1.88275 1.85264
15

Ar -1.71804 1.56442 3.27867
Ar 1.58329 -0.589365 -0.889384
Ar -0.120088 0.0107733 1.97518
Ar 0.809503 3.30709 1.55503
Ar 0.30106 1.22591 0.470474
Ar 3.07922 2.21197 0.234505
Ar 3.63633 0.0507791 -0.622636
Ar -1.10476 0.745017 2.28454
Ar -0.84768 2.53654 1.94551
Ar 3.05431 1.11599 1.31228
Ar -1.82915 -0.532107 0.640968
Ar 0.933348 2.41143 -0.119021
Ar 2.52631 -0.819461 2.30644
Ar 1.80681 0.42954 0.222036
Ar 1.7513 1.85772 1.84096
15

Ar -1.72707 1.56066 3.27735
Ar 1.57541 -0.586337 -0.887682
Ar -0.13671 0.0180417 1.98473
Ar 0.79228 3.31003 1.55711
Ar 0.293468 1.2412 0.455067
Ar 3.08004 2.21965 0.224214
Ar 3.66577 0.0411501 -0.611422
Ar -1.10569 0.746511 2.29038
Ar -0.866663 2.56852 1.95703
Ar 3.05973 1.08851 1.30388
Ar -1.83162 -0.516474 0.658308
Ar 0.938334 2.41685 -0.122726
Ar 2.55512 -0.84523 2.3304
Ar 1.82119 0.43052 0.189661
Ar 1.74819 1.83264 1.82923
15

Ar -1.73615 1.5569 3.27606
Ar 1.56739 -0.583222 -0.88597
Ar -0.153212 0.0253209 1.99424
Ar 0.775184 3.31284 1.55911
Ar 0.285921 1.25643 0.439663
Ar 3.0809 2.22742 0.213918
Ar 3.69525 0.0314971 -0.600053
Ar -1.10686 0.747912 2.29679
Ar -0.884508 2.59944 1.96789
Ar 3.06522 1.06121 1.2949
Ar -1.83394 -0.50119 0.675839
Ar 0.94328 2.42225 -0.126422
Ar 2.58297 -0.869976 2.35497
Ar 1.8354 0.431882 0.157159
Ar 1.74491 1.80753 1.81746
15

Ar -1.7453 1.55314 3.27479
Ar 1.55926 -0.580025 -0.88427
Ar -0.169567 0.0325986 2.00369
Ar 0.758217 3.31553 1.56102
Ar 0.278423 1.2716 0.424263
Ar 3.08181 2.23527 0.203623
Ar 3.72478 0.0218226 -0.588533
Ar -1.10827 0.749251 2.30375
Ar -0.900717 2.62878 1.97761
Ar 3.07076 1.03409 1.28533
Ar -1.83611 -0.486241 0.693572
Ar 0.948187 2.42765 -0.130106
Ar 2.60935 -0.893215 2.38063
Ar 1.84946 0.433607 0.124526
Ar 1.74149 1.78238 1.80565
15

Ar -1.7545 1.5494 3.27355
Ar 1.55102 -0.576748 -0.882602
Ar -0.185747 0.0398613 2.01309
Ar 0.741378 3.3181 1.56285
Ar 0.270973 1.28672 0.408868
Ar 3.08274 2.2432 0.193334
Ar 3.75434 0.012129 -0.576863
Ar -1.10992 0.750563 2.31124
Ar -0.914636 2.65593 1.98549
Ar 3.07636 1.00712 1.27521
Ar -1.83816 -0.471603 0.711515
Ar 0.953056 2.43304 -0.133774
Ar 2.63357 -0.914339 2.40808
Ar 1.86337 0.435667 0.0917637
Ar 1.73792 1.75722 1.79379
15

Ar -1.76375 1.54568 3.27233
Ar 1.54269 -0.573396 -0.880985
Ar -0.201727 0.0470944 2.02243
Ar 0.724669 3.32055 1.5646
Ar 0.263572 1.30177 0.393481
Ar 3.08371 2.2512 0.183054
Ar 3.78395 0.00241813 -0.565048
Ar -1.11184 0.751882 2.31924
Ar -0.925544 2.68023 1.99058
Ar 3.08201 0.980311 1.26456
Ar -1.84011 -0.457249 0.729667
Ar 0.957888 2.4384 -0.137421
Ar 2.6549 -0.93271 2.43829
Ar 1.87715 0.438027 0.0588819
Ar 1.73421 1.73203 1.78189
15

Ar -1.77306 1.54201 3.27111
Ar 1.53426 -0.569974 -0.879435
Ar -0.217481 0.0542821 2.03171
Ar 0.708087 3.32288 1.56626
Ar 0.25622 1.31677 0.378104
Ar 3.0847 2.25929 0.17279
Ar 3.81359 -0.007308 -0.553092
Ar -1.11402 0.753241 2.32773
Ar -0.932863 2.70122 1.99187
Ar 3.0877 0.953641 1.25341
Ar -1.84196 -0.443153 0.748023
Ar 0.962686 2.44375 -0.141044
Ar 2.67275 -0.947875 2.47226
Ar 1.8908 0.440658 0.0258956
Ar 1.73036 1.70683 1.76994
15

Ar -1.78242 1.53839 3.26989
Ar 1.52575 -0.566485 -0.877966
Ar -0.232983 0.0614071 2.04094
Ar 0.691634 3.32509 1.56784
Ar 0.248916 1.3317 0.362737
Ar 3.0857 2.26745 0.162543
Ar 3.84328 -0.0170474 -0.540999
Ar -1.11647 0.754675 2.33668
Ar -0.936426 2.71884 1.98862
Ar 3.09341 0.927104 1.2418
Ar -1.84375 -0.429288 0.766573
Ar 0.967449 2.44905 -0.144637
Ar 2.68694 -0.959793 2.51074
Ar 1.90436 0.443525 -0.00717238
Ar 1.72638 1.68161 1.75795
15

Ar -1.79183 1.53486 3.26866
Ar 1.51716 -0.562933 -0.876591
Ar -0.248207 0.0684515 2.05012
Ar 0.675315 3.3272 1.56934
Ar 0.241659 1.34656 0.347382
Ar 3.08672 2.27569 0.152319
Ar 3.873 -0.0267979 -0.528774
Ar -1.11919 0.756213 2.34606
Ar -0.936592 2.73353 1.9807
Ar 3.09916 0.900692 1.22975
Ar -1.84549 -0.415624 0.785303
Ar 0.972179 2.45432 -0.148196
Ar 2.6978 -0.968898 2.55386
Ar 1.91781 0.446587 -0.0402947
Ar 1.72228 1.6564 1.74592
15

Ar -1.8013 1.53142 3.26743
Ar 1.50848 -0.559322 -0.875323
Ar -0.263129 0.0753959 2.05926
Ar 0.659136 3.3292 1.57075
Ar 0.234449 1.36134 0.332043
Ar 3.08775 2.28401 0.14212
Ar 3.90276 -0.036557 -0.516423
Ar -1.12219 0.757886 2.35583
Ar -0.934077 2.74597 1.96861
Ar 3.10491 0.8744 1.21728
Ar -1.8472 -0.402134 0.804197
Ar 0.976878 2.45955 -0.151716
Ar 2.70605 -0.975896 2.6011
Ar 1.93119 0.449801 -0.0734407
Ar 1.71806 1.63118 1.73383
15

Ar -1.81081 1.5281 3.26617
Ar 1.49972 -0.555655 -0.874172
Ar -0.277722 0.0822208 2.06836
Ar 0.6431 3.3311 1.57208
Ar 0.227284 1.37604 0.316725
Ar 3.08879 2.2924 0.131952
Ar 3.93255 -0.0463216 -0.50395
Ar -1.12549 0.759721 2.36595
Ar -0.929666 2.75688 1.95322
Ar 3.11068 0.848223 1.20443
Ar -1.84889 -0.388793 0.823234
Ar 0.981547 2.46473 -0.155192
Ar 2.71246 -0.9815 2.65162
Ar 1.9445 0.453125 -0.106579
Ar 1.71372 1.60597 1.72171
15

Ar -1.82038 1.52492 3.26489
Ar 1.49088 -0.551934 -0.87315
Ar -0.291965 0.0889064 2.07742
Ar 0.627206 3.3329 1.57332
Ar 0.220162 1.39066 0.301427
Ar 3.08982 2.30087 0.121821
Ar 3.96237 -0.0560884 -0.491361
Ar -1.12907 0.761749 2.37641
Ar -0.924013 2.7668 1.93541
Ar 3.11644 0.822161 1.19122
Ar -1.85058 -0.375589 0.842397
Ar 0.986188 2.46987 -0.158618
Ar 2.71769 -0.98626 2.7045
Ar 1.95775 0.456518 -0.139677
Ar 1.70928 1.58077 1.70953
15

Ar -1.83 1.52192 3.26358
Ar 1.48194 -0.548164 -0.872269
Ar -0.30583 0.0954332 2.08648
Ar 0.611455 3.33459 1.57447
Ar 0.213081 1.4052 0.286152
Ar 3.09085 2.3094 0.111733
Ar 3.9922 -0.0658533 -0.478663
Ar -1.13295 0.764009 2.38716
Ar -0.917584 2.77607 1.91593
Ar 3.12221 0.796214 1.17767
Ar -1.85229 -0.362509 0.861666
Ar 0.990802 2.47494 -0.161988
Ar 2.72221 -0.990541 2.75902
Ar 1.97096 0.459939 -0.172702
Ar 1.70472 1.55559 1.69732
15

Ar -1.83967 1.51912 3.26222
Ar 1.47292 -0.544345 -0.871541
Ar -0.319294 0.101783 2.09552
Ar 0.595848 3.33619 1.57553
Ar 0.206041 1.41965 0.2709
Ar 3.09188 2.318 0.101699
Ar 0.0220275 -0.0756119 -0.465859
Ar -1.13713 0.766524 2.39818
Ar -0.910682 2.7849 1.89531
Ar 3.12797 0.770383 1.1638
Ar -1.85402 -0.34954 0.881021
Ar 0.995392 2.47996 -0.165296
Ar 2.7263 -0.994562 2.81462
Ar 1.98414 0.463345 -0.20562
Ar 1.70005 1.53044 1.68506
15

Ar -1.8494 1.51657 3.26081
Ar 1.46382 -0.540482 -0.870977
Ar -0.332339 0.107938 2.10456
Ar 0.580389 3.3377 1.57651
Ar 0.199039 1.43401 0.255672
Ar 3.09289 2.32665 0.0917323
Ar 0.051851 -0.0853589 -0.452956
Ar -1.14161 0.769312 2.40945
Ar -0.903499 2.79342 1.87394
Ar 3.13372 0.744685 1.14963
Ar -1.85581 -0.336672 0.900445
Ar 0.999958 2.48491 -0.168537
Ar 2.73017 -0.998448 2.87091
Ar 1.99731 0.466695 -0.2384
Ar 1.69528 1.50531 1.67276
15

Ar -1.85919 1.51431 3.25935
Ar 1.45463 -0.536577 -0.870591
Ar -0.344946 0.113883 2.11361
Ar 0.56508 3.33911 1.5774
Ar 0.192074 1.44827 0.240469
Ar 3.0939 2.33535 0.0818526
Ar 0.0816586 -0.0950884 -0.439956
Ar -1.1464 0.772388 2.42094
Ar -0.896154 2.80168 1.85205
Ar 3.13947 0.719126 1.13517
Ar -1.85765 -0.323897 0.919921
Ar 1.0045 2.48979 -0.171705
Ar 2.73393 -1.00226 2.92764
Ar 2.01046 0.469945 -0.271011
Ar 1.69041 1.48022 1.66041
15

Ar -1.86905 1.51237 3.25781
Ar 1.44537 -0.532634 -0.870394
Ar -0.357101 0.119604 2.12268
Ar 0.549925 3.34043 1.5782
Ar 0.185144 1.46243 0.225291
Ar 3.0949 2.34408 0.0720844
Ar 0.11144 -0.104794 -0.426864
Ar -1.15149 0.775766 2.43263
Ar -0.888723 2.80973 1.82984
Ar 3.14523 0.693709 1.12043
Ar -1.85957 -0.311212 0.939445
Ar 1.00903 2.49459 -0.174792
Ar 2.73763 -1.00603 2.98459
Ar 2.02361 0.473049 -0.303425
Ar 1.68543 1.45515 1.64803
15

Ar -1.87897 1.5108 3.2562
Ar 1.43605 -0.528659 -0.870402
Ar -0.368791 0.125091 2.13177
Ar 0.534928 3.34166 1.57891
Ar 0.178249 1.47649 0.210139
Ar 3.09591 2.35282 0.0624602
Ar 0.141182 -0.114467 -0.413684
Ar -1.15688 0.779459 2.44448
Ar -0.881254 2.81758 1.8074
Ar 3.15099 0.668437 1.10543
Ar -1.86158 -0.298613 0.959007
Ar 1.01354 2.49931 -0.177794
Ar 2.74131 -1.00974 3.04163
Ar 2.03675 0.475962 -0.335615
Ar 1.68035 1.43013 1.63561
15

Ar -1.88898 1.50965 3.25452
Ar 1.42667 -0.524655 -0.870626
Ar -0.380008 0.130334 2.14089
Ar 0.520094 3.34281 1.57955
Ar 0.171387 1.49042 0.195014
Ar 3.09692 2.36154 0.0530249
Ar 0.170862 -0.124099 -0.400432
Ar -1.16256 0.783476 2.45649
Ar -0.873778 2.82525 1.78482
Ar 3.15676 0.643314 1.09017
Ar -1.86369 -0.2861 0.978598
Ar 1.01803 2.50393 -0.180706
Ar 2.74499 -1.01339 3.09865
Ar 2.04988 0.478634 -0.367555
Ar 1.67518 1.40514 1.62315
15

Ar -1.89908 1.50898 3.25275
Ar 1.41727 -0.520622 -0.871081
Ar -0.390746 0.135328 2.15004
Ar 0.50543 3.34388 1.58013
Ar 0.164558 1.50423 0.179916
Ar 3.09798 2.37019 0.0438395
Ar 0.20046 -0.133681 -0.38711
Ar -1.16852 0.787828 2.46862
Ar -0.866321 2.83273 1.76214
Ar 3.16257 0.618342 1.07467
Ar -1.86592 -0.273675 0.998208
Ar 1.02252 2.50845 -0.183522
Ar 2.74865 -1.01693 3.15551
Ar 2.06302 0.481016 -0.399221
Ar 1.6699 1.38019 1.61064
15

Ar -1.90928 1.50882 3.2509
Ar 1.40784 -0.516565 -0.871778
Ar -0.400999 0.140068 2.15924
Ar 0.490943 3.34486 1.58064
Ar 0.157761 1.51791 0.164845
Ar 3.0991 2.3787 0.0349876
Ar 0.229956 -0.143202 -0.373715
Ar -1.17474 0.79252 2.48085
Ar -0.858898 2.84003 1.73941
Ar 3.16841 0.593525 1.05894
Ar -1.86828 -0.261339 1.01783
Ar 1.02699 2.51285 -0.186236
Ar 2.75226 -1.02029 3.21212
Ar 2.07617 0.48306 -0.430581
Ar 1.66454 1.35529 1.59809
15

Ar -1.9196 1.50923 3.24897
Ar 1.39843 -0.512486 -0.872732
Ar -0.410769 0.144552 2.16847
Ar 0.476642 3.34577 1.58108
Ar 0.150998 1.53146 0.149805
Ar 3.10034 2.38698 0.026583
Ar 0.259327 -0.15265 -0.360244
Ar -1.18121 0.797561 2.49314
Ar -0.851523 2.84714 1.71666
Ar 3.17431 0.568866 1.04298
Ar -1.87079 -0.249095 1.03746
Ar 1.03146 2.51714 -0.188841
Ar 2.75577 -1.02338 3.26834
Ar 2.08931 0.484717 -0.461612
Ar 1.65908 1.33044 1.58549
15

Ar -1.93006 1.51025 3.24698
Ar 1.38905 -0.508391 -0.873958
Ar -0.420058 0.148781 2.17774
Ar 0.462536 3.34659 1.58145
Ar 0.144269 1.54486 0.134799
Ar 3.10177 2.3949 0.0187786
Ar 0.288547 -0.16201 -0.346688
Ar -1.1879 0.802957 2.50546
Ar -0.844209 2.85405 1.69389
Ar 3.18028 0.544367 1.02681
Ar -1.87346 -0.236949 1.05709
Ar 1.03593 2.5213 -0.191332
Ar 2.75909 -1.02605 3.32399
Ar 2.10246 0.48594 -0.492293
Ar 1.65352 1.30565 1.57284
15

Ar -1.94068 1.51191 3.24492
Ar 1.37973 -0.504281 -0.875474
Ar -0.428869 0.152757 2.18704
Ar 0.448635 3.34734 1.58176
Ar 0.137576 1.5581 0.119827
Ar 3.10353 2.40223 0.0117756
Ar 0.317589 -0.171269 -0.333038
Ar -1.19477 0.808716 2.51776
Ar -0.836968 2.86077 1.67112
Ar 3.18633 0.52003 1.01042
Ar -1.87632 -0.224903 1.07673
Ar 1.04041 2.52533 -0.193702
Ar 2.76211 -1.0281 3.37886
Ar 2.1156 0.486685 -0.522602
Ar 1.64788 1.28093 1.56015
15

Ar -1.95148 1.51425 3.24281
Ar 1.37051 -0.500162 -0.8773
Ar -0.437211 0.156482 2.19637
Ar 0.43495 3.34801 1.58201
Ar 0.130923 1.57119 0.10489
Ar 3.10577 2.40872 0.00582942
Ar 0.346419 -0.18041 -0.319279
Ar -1.20179 0.814847 2.53001
Ar -0.829812 2.86728 1.64836
Ar 3.19248 0.495856 0.993827
Ar -1.87937 -0.212963 1.09637
Ar 1.04489 2.5292 -0.195947
Ar 2.76463 -1.02923 3.4327
Ar 2.12872 0.486915 -0.552516
Ar 1.64214 1.25627 1.54741
15

Ar -1.96248 1.51728 3.24068
Ar 1.36141 -0.496038 -0.879457
Ar -0.44509 0.159963 2.20573
Ar 0.421495 3.34861 1.58219
Ar 0.124315 1.5841 0.0899869
Ar 3.10873 2.41396 0.00124363
Ar 0.375003 -0.189415 -0.305397
Ar -1.2089 0.821366 2.54213
Ar -0.822752 2.87358 1.62563
Ar 3.19875 0.471847 0.977035
Ar -1.88263 -0.201133 1.11601
Ar 1.04939 2.53291 -0.19806
Ar 2.76641 -1.02906 3.48519
Ar 2.1418 0.486591 -0.582003
Ar 1.63632 1.23169 1.53463
15

Ar -1.97369 1.521 3.23853
Ar 1.35249 -0.491915 -0.881968
Ar -0.452518 0.163203 2.21511
Ar 0.408282 3.34914 1.58232
Ar 0.117764 1.59684 0.0751168
Ar 3.11271 2.41747 -0.00165676
Ar 0.403303 -0.198265 -0.291366
Ar -1.21603 0.82829 2.55405
Ar -0.815802 2.87967 1.60293
Ar 3.20513 0.448003 0.960049
Ar -1.8861 -0.189418 1.13566
Ar 1.0539 2.53646 -0.200037
Ar 2.76714 -1.02709 3.53601
Ar 2.1548 0.485681 -0.611024
Ar 1.6304 1.20719 1.52181
15

Ar -1.98515 1.52541 3.2364
Ar 1.34377 -0.487798 -0.884852
Ar -0.459505 0.16621 2.22452
Ar 0.395327 3.34961 1.5824
Ar 0.111278 1.60938 0.060279
Ar 3.11806 2.4187 -0.00258329
Ar 0.431279 -0.206939 -0.277156
Ar -1.22312 0.83565 2.5657
Ar -0.808977 2.88553 1.58026
Ar 3.21165 0.424323 0.942873
Ar -1.8898 -0.177822 1.15531
Ar 1.05844 2.53982 -0.201874
Ar 2.76645 -1.02276 3.58485
Ar 2.16768 0.484151 -0.639528
Ar 1.62439 1.18278 1.50895
15

Ar -1.99686 1.53051 3.23429
Ar 1.3353 -0.483694 -0.888144
Ar -0.466063 0.16899 2.23394
Ar 0.382646 3.35003 1.58244
Ar 0.104867 1.62173 0.0454718
Ar 3.12513 2.41711 -0.00136623
Ar 0.45889 -0.215416 -0.262733
Ar -1.23006 0.843485 2.57698
Ar -0.802293 2.89116 1.55763
Ar 3.2183 0.40081 0.925512
Ar -1.89372 -0.166353 1.17495
Ar 1.063 2.54299 -0.203566
Ar 2.76398 -1.01554 3.63154
Ar 2.18037 0.481964 -0.667448
Ar 1.61828 1.15847 1.49605
15

Ar 1.99117 1.53626 3.23223
Ar 1.32711 -0.479607 -0.891884
Ar -0.472204 0.171549 2.24337
Ar 0.370258 3.3504 1.58244
Ar 0.098547 1.63385 0.030693
Ar 3.13416 2.41233 0.00197242
Ar 0.486094 -0.223673 -0.248056
Ar -1.23677 0.851853 2.58776
Ar -0.795764 2.89655 1.53507
Ar 3.2251 0.377473 0.907972
Ar -1.89786 -0.155016 1.1946
Ar 1.0676 2.54596 -0.20511
Ar 2.75946 -1.00503 3.67606
Ar 2.19279 0.479079 -0.6947
Ar 1.61208 1.13428 1.48313
15

Ar 1.97892 1.54263 3.23024
Ar 1.31924 -0.475546 -0.896116
Ar -0.477939 0.173895 2.25281
Ar 0.358181 3.35072 1.58241
Ar 0.0923372 1.64574 0.0159392
Ar 3.14522 2.40426 0.00720398
Ar 0.512851 -0.231689 -0.233081
Ar -1.2431 0.86083 2.59792
Ar -0.78941 2.9017 1.51256
Ar 3.23204 0.354313 0.890256
Ar -1.90222 -0.14382 1.21425
Ar 1.07224 2.54871 -0.206503
Ar 2.75281 -0.991147 3.71866
Ar 2.20483 0.475438 -0.72118
Ar 1.60578 1.11022 1.47017
15

Ar 1.9664 1.54959 3.22832
Ar 1.31171 -0.471515 -0.900887
Ar -0.483281 0.176033 2.26225
Ar 0.346435 3.35101 1.58237
Ar 0.0862639 1.65737 0.00120561
Ar 3.15816 2.39311 0.0139556
Ar 0.539126 -0.239443 -0.217758
Ar -1.24892 0.870517 2.60731
Ar -0.783247 2.90659 1.49013
Ar 3.23913 0.331329 0.87237
Ar -1.90679 -0.132775 1.23392
Ar 1.07693 2.55124 -0.207742
Ar 2.74411 -0.974075 3.75969
Ar 2.21638 0.470967 -0.746768
Ar 1.59936 1.0863 1.45719
15

Ar 1.95359 1.55709 3.22649
Ar 1.30457 -0.46752 -0.906244
Ar -0.488239 0.177968 2.27169
Ar 0.33504 3.35127 1.58231
Ar 0.0803615 1.66871 -0.0135146
Ar 3.1727 2.37933 0.0218141
Ar 0.564886 -0.246913 -0.202037
Ar -1.25407 0.88104 2.61576
Ar -0.777295 2.91122 1.46776
Ar 3.24635 0.308523 0.854321
Ar -1.91155 -0.121897 1.2536
Ar 1.08167 2.55354 -0.208827
Ar 2.73363 -0.954243 3.79956
Ar 2.22729 0.465573 -0.771326
Ar 1.59283 1.06255 1.44418
15

Ar 1.94052 1.5651 3.22477
Ar 1.29782 -0.463564 -0.912234
Ar -0.492823 0.179704 2.28112
Ar 0.324018 3.35151 1.58225
Ar 0.0746753 1.67973 -0.028231
Ar 3.18845 2.36347 0.0304144
Ar 0.590109 -0.254082 -0.185868
Ar -1.2584 0.892548 2.62313
Ar -0.771573 2.91558 1.44547
Ar 3.25371 0.2859 0.836113
Ar -1.91648 -0.111203 1.27327
Ar 1.08646 2.55559 -0.209755
Ar 2.7217 -0.932183 3.83864
Ar 2.23741 0.459143 -0.794706
Ar 1.58618 1.039 1.43116
15

Ar 1.92718 1.57355 3.22314
Ar 1.29148 -0.459649 -0.918901
Ar -0.497044 0.181247 2.29055
Ar 0.313388 3.35173 1.5822
Ar 0.0692629 1.69039 -0.0429573
Ar 3.20501 2.34609 0.0394809
Ar 0.614782 -0.260934 -0.169205
Ar -1.26176 0.905208 2.62928
Ar -0.766102 2.91967 1.42326
Ar 3.26119 0.263464 0.817756
Ar -1.92155 -0.100718 1.29294
Ar 1.09132 2.5574 -0.210527
Ar 2.70863 -0.908416 3.8772
Ar 2.24661 0.451548 -0.816787
Ar 1.57938 1.01567 1.41811
15

Ar 1.91358 1.5824 3.22162
Ar 1.28553 -0.455775 -0.926279
Ar -0.50091 0.182597 2.29996
Ar 0.303172 3.35195 1.58218
Ar 0.0641969 1.70063 -0.0577129
Ar 3.22203 2.32766 0.0488308
Ar 0.638902 -0.267457 -0.152007
Ar -1.26403 0.919182 2.63411
Ar -0.7609 2.92346 1.40114
Ar 3.26879 0.241227 0.799256
Ar -1.92674 -0.0904706 1.31261
Ar 1.09624 2.55895 -0.211142
Ar 2.69471 -0.883392 3.91542
Ar 2.25477 0.442664 -0.83748
Ar 1.57243 0.992614 1.40504
15

Ar 1.89974 1.59161 3.22019
Ar 1.27997 -0.451942 -0.934394
Ar -0.504427 0.183758 2.30936
Ar 0.293389 3.35218 1.5822
Ar 0.0595669 1.71038 -0.0725244
Ar 3.23917 2.30861 0.058358
Ar 0.662479 -0.27364 -0.134242
Ar -1.26512 0.934617 2.63757
Ar -0.755987 2.92696 1.37911
Ar 3.2765 0.2192 0.780624
Ar -1.93201 -0.0804963 1.33228
Ar 1.10123 2.56023 -0.211603
Ar 2.68016 -0.857469 3.95341
Ar 2.26179 0.432382 -0.856749
Ar 1.5653 0.96986 1.39195
15

Ar 1.88568 1.60113 3.21886
Ar 1.27476 -0.448146 -0.943262
Ar -0.507605 0.184732 2.31874
Ar 0.284057 3.35241 1.58227
Ar 0.0554809 1.71959 -0.0874285
Ar 3.25617 2.28924 0.0680148
Ar 0.685529 -0.279479 -0.115888
Ar -1.265 0.95161 2.63968
Ar -0.751378 2.93016 1.35718
Ar 3.28432 0.197402 0.761869
Ar -1.93732 -0.0708367 1.35196
Ar 1.10629 2.56125 -0.21191
Ar 2.66514 -0.830921 3.99124
Ar 2.26766 0.420636 -0.874615
Ar 1.55797 0.94746 1.37884
15

Ar 1.8714 1.61091 3.21761
Ar 1.26989 -0.444384 -0.952882
Ar -0.510451 0.185519 2.3281
Ar 0.275194 3.35266 1.58241
Ar 0.0520654 1.72817 -0.102474
Ar 3.27275 2.26984 0.0777968
Ar 0.708067 -0.284961 -0.0969371
Ar -1.26371 0.970209 2.64051
Ar -0.747087 2.93305 1.33536
Ar 3.29225 0.175854 0.743003
Ar -1.94262 -0.0615391 1.37165
Ar 1.11143 2.562 -0.212066
Ar 2.64978 -0.803954 0.028918
Ar 2.27241 0.407414 -0.89116
Ar 1.55041 0.925465 1.3657
15

Ar 1.85694 1.62091 3.21644
Ar 1.26529 -0.440651 -0.963243
Ar -0.512972 0.186124 2.33745
Ar 0.266813 3.35293 1.58264
Ar 0.0494635 1.736 -0.117724
Ar 3.28868 2.25061 0.0877338
Ar 0.730126 -0.290074 -0.0773933
Ar -1.26133 0.990397 2.64018
Ar -0.743126 2.93561 1.31366
Ar 3.30028 0.154586 0.72404
Ar -1.94788 -0.0526564 1.39137
Ar 1.11663 2.56248 -0.212073
Ar 2.63414 -0.776726 0.0664589
Ar 2.27612 0.392765 -0.906511
Ar 1.54259 0.903938 1.35252
15

Ar 1.8423 1.63108 3.21533
Ar 1.26094 -0.436944 -0.97432
Ar -0.515177 0.186548 2.34677
Ar 0.258929 3.35323 1.58298
Ar 0.0478298 1.74301 -0.133258
Ar 3.30374 2.23174 0.0978828
Ar 0.751749 -0.29482 -0.0572723
Ar -1.25798 1.0121 2.63884
Ar -0.739502 2.93784 1.2921
Ar 3.30843 0.133631 0.704992
Ar -1.95303 -0.0442456 1.41113
Ar 1.12191 2.5627 -0.211933
Ar 2.61827 -0.749357 0.103843
Ar 2.27891 0.376794 -0.920824
Ar 1.53446 0.882941 1.33928
15

Ar 1.82752 1.6414 3.21427
Ar 1.25676 -0.433259 -0.986076
Ar -0.517074 0.186797 2.35608
Ar 0.25155 3.35356 1.58343
Ar 0.04732 1.74911 -0.14917
Ar 3.31771 2.21338 0.108323
Ar 0.772977 -0.299204 -0.0365996
Ar -1.25379 1.0352 2.63667
Ar -0.736219 2.9397 1.27069
Ar 3.31671 0.113029 0.685875
Ar -1.95802 -0.0363654 1.43095
Ar 1.12726 2.56266 -0.211649
Ar 2.60217 -0.721944 0.141047
Ar 2.28091 0.359646 -0.934265
Ar 1.52599 0.862537 1.32597
15

Ar 1.8126 1.65181 3.21324
Ar 1.25273 -0.429595 -0.998468
Ar -0.518673 0.186875 2.36538
Ar 0.244682 3.35392 1.58402
Ar 0.0480796 1.75424 -0.165564
Ar 3.33041 2.19563 0.119147
Ar 0.793856 -0.303229 -0.0154092
Ar -1.2489 1.05955 2.63381
Ar -0.733276 2.9412 1.24945
Ar 3.32516 0.0928283 0.666703
Ar -1.9628 -0.0290737 1.45086
Ar 1.13267 2.56237 -0.211223
Ar 2.58582 -0.694564 0.178037
Ar 2.28228 0.341486 -0.946989
Ar 1.51713 0.84279 1.31255
15

Ar 1.79758 1.66227 3.21224
Ar 1.24877 -0.42595 -1.01145
Ar -0.519983 0.186791 2.37467
Ar 0.238325 3.35433 1.58476
Ar 0.0502272 1.75836 -0.182551
Ar 3.3417 2.17858 0.130455
Ar 0.814427 -0.306903 0.00625983
Ar -1.24343 1.08499 2.63039
Ar -0.730666 2.94232 1.2284
Ar 3.33382 0.0730785 0.647487
Ar -1.96731 -0.0224234 1.47089
Ar 1.13814 2.56185 -0.210654
Ar 2.5692 -0.667284 0.21478
Ar 2.28313 0.322486 -0.959131
Ar 1.50784 0.823757 1.29901
15

Ar 1.78248 1.67276 3.21123
Ar 1.24485 -0.422327 -1.02495
Ar -0.521014 0.18655 2.38394
Ar 0.232476 3.35477 1.58566
Ar 0.0538385 1.76144 -0.200232
Ar 3.35147 2.16225 0.142342
Ar 0.834731 -0.310233 0.0283649
Ar -1.2375 1.11138 2.62654
Ar -0.728377 2.94304 1.20755
Ar 3.34273 0.0538332 0.628236
Ar -1.97149 -0.0164589 1.49108
Ar 1.14367 2.56111 -0.209944
Ar 2.55223 -0.64016 0.251242
Ar 2.2836 0.302807 -0.970806
Ar 1.49808 0.805489 1.28529
15

Ar 1.76731 1.68323 3.21021
Ar 1.24092 -0.418727 -1.03894
Ar -0.521776 0.186163 2.39321
Ar 0.22713 3.35525 1.58674
Ar 0.0589345 1.76352 -0.218691
Ar 3.35971 2.14663 0.154883
Ar 0.854802 -0.313227 0.0508624
Ar -1.2312 1.13859 2.62233
Ar -0.726393 2.94334 1.18694
Ar 3.35196 0.0351447 0.608956
Ar -1.9753 -0.0112113 1.51147
Ar 1.14925 2.56017 -0.20909
Ar 2.53486 -0.613238 0.287394
Ar 2.28378 0.282595 -0.982099
Ar 1.4878 0.788024 1.27137
15

Ar 1.7521 1.69364 3.20914
Ar 1.23693 -0.415155 -1.05335
Ar -0.522278 0.185641 2.40248
Ar 0.222277 3.35577 1.58801
Ar 0.0654776 1.76464 -0.237986
Ar 3.36642 2.13167 0.168128
Ar 0.874671 -0.315893 0.0737087
Ar -1.22459 1.16648 2.61784
Ar -0.724693 2.94321 1.16658
Ar 3.36158 0.0170594 0.589646
Ar -1.97871 -0.00669553 1.53209
Ar 1.15486 2.55906 -0.208088
Ar 2.51701 -0.586552 0.323214
Ar 2.28375 0.261978 -0.993078
Ar 1.47698 0.771384 1.2572
15

Ar 1.73687 1.70396 3.20802
Ar 1.23285 -0.411616 -1.06813
Ar -0.522533 0.184997 2.41175
Ar 0.217903 3.35633 1.58948
Ar 0.0733766 1.7649 -0.258137
Ar 3.37169 2.11729 0.182089
Ar 0.894362 -0.318234 0.0968616
Ar -1.21775 1.19496 2.61311
Ar -0.723255 2.94264 1.14649
Ar 3.37165 -0.000386878 0.570286
Ar -1.98168 -0.00290767 1.55299
Ar 1.1605 2.5578 -0.206932
Ar 2.49859 -0.560119 0.358693
Ar 2.28359 0.241062 -1.00379
Ar 1.4656 0.755575 1.24276
15

Ar 1.72166 1.71414 3.20681
Ar 1.22864 -0.408115 -1.08324
Ar -0.522554 0.184244 2.42102
Ar 0.213991 3.35691 1.59115
Ar 0.0824987 1.76439 -0.279133
Ar 3.37565 2.10338 0.196746
Ar 0.913895 -0.320261 0.120281
Ar -1.2107 1.22393 2.60819
Ar -0.722057 2.94162 1.1267
Ar 3.38223 -0.0171732 0.550849
Ar -1.98421 0.000175228 1.5742
Ar 1.16616 2.55643 -0.205615
Ar 2.47956 -0.533941 0.393835
Ar 2.28335 0.219934 -1.01426
Ar 1.45366 0.740585 1.22801
15

Ar 1.70648 1.72415 3.20549
Ar 1.22427 -0.40466 -1.09862
Ar -0.522348 0.183397 2.4303
Ar 0.210525 3.35752 1.59302
Ar 0.0926858 1.76321 -0.300932
Ar 3.37845 2.08983 0.212047
Ar 0.933286 -0.321989 0.143928
Ar -1.2035 1.25333 2.6031
Ar -0.721076 2.94013 1.10722
Ar 3.39336 -0.0332953 0.531293
Ar -1.98629 0.00259399 1.59574
Ar 1.17183 2.55498 -0.204123
Ar 2.45985 -0.508006 0.428657
Ar 2.28308 0.198664 -1.02451
Ar 1.44117 0.726387 1.21292
15

Ar 1.69135 1.73395 3.20404
Ar 1.21972 -0.401255 -1.11424
Ar -0.521922 0.18247 2.4396
Ar 0.207481 3.35816 1.5951
Ar 0.103771 1.76147 -0.323471
Ar 3.38024 2.07652 0.22792
Ar 0.952545 -0.323432 0.167767
Ar -1.19616 1.28309 2.59788
Ar -0.720293 2.93819 1.08806
Ar 3.40507 -0.0487656 0.511576
Ar -1.98795 0.00440437 1.61762
Ar 1.17749 2.55349 -0.202444
Ar 2.43947 -0.482285 0.463177
Ar 2.28282 0.177311 -1.03455
Ar 1.42814 0.712939 1.19751
15

Ar 1.67631 1.74351 3.20241
Ar 1.21495 -0.397909 -1.13005
Ar -0.521281 0.181477 2.44891
Ar 0.204839 3.3588 1.5974
Ar 0.11559 1.75926 -0.346675
Ar 3.3812 2.06334 0.244277
Ar 0.971678 -0.324608 0.191763
Ar -1.18871 1.31315 2.59252
Ar -0.719694 2.93579 1.06923
Ar 3.41734 -0.0636093 0.49165
Ar -1.98922 0.00567306 1.63985
Ar 1.18313 2.552 -0.200559
Ar 2.41843 -0.456742 0.49742
Ar 2.28259 0.155916 -1.04436
Ar 1.41461 0.700195 1.18177
15

Ar 1.66138 1.75278 3.20057
Ar 1.20995 -0.394626 -1.14602
Ar -0.520429 0.180433 2.45825
Ar 0.202574 3.35946 1.5999
Ar 0.127992 1.75665 -0.370463
Ar 3.38145 2.0502 0.26103
Ar 0.990684 -0.325537 0.21588
Ar -1.18115 1.34348 2.58705
Ar -0.719267 2.93295 1.05074
Ar 3.43014 -0.07786 0.471473
Ar -1.99012 0.00647334 1.66242
Ar 1.18874 2.55056 -0.198449
Ar 2.39678 -0.431338 0.531411
Ar 2.28243 0.134515 -1.05395
Ar 1.40061 0.688103 1.16572
15

Ar 1.64659 1.76174 3.19849
Ar 1.20469 -0.391412 -1.16212
Ar -0.519372 0.17935 2.46761
Ar 0.200661 3.36013 1.6026
Ar 0.140843 1.75372 -0.394757
Ar 3.38114 2.037 0.278087
Ar 1.00956 -0.326243 0.240086
Ar -1.17352 1.37404 2.58147
Ar -0.719008 2.92969 1.03259
Ar 3.44342 -0.0915541 0.451017
Ar -1.9907 0.00688092 1.6853
Ar 1.1943 2.5492 -0.196091
Ar 2.3746 -0.406039 0.56517
Ar 2.28236 0.113132 -1.0633
Ar 1.3862 0.676613 1.14938
15

Ar 1.63195 1.77035 3.19615
Ar 1.19916 -0.388272 -1.17832
Ar -0.518112 0.178243 2.47698
Ar 0.199074 3.3608 1.6055
Ar 0.154028 1.75051 -0.419481
Ar 3.38037 2.02367 0.295367
Ar 1.0283 -0.326751 0.264345
Ar -1.16581 1.4048 2.5758
Ar -0.718916 2.92604 1.01478
Ar 3.45711 -0.104727 0.430274
Ar -1.99101 0.00697057 1.70848
Ar 1.1998 2.54797 -0.193459
Ar 2.35199 -0.380817 0.598708
Ar 2.28241 0.0917845 -1.07237
Ar 1.37141 0.665683 1.1328
15

Ar 1.6175 1.77856 3.1935
Ar 1.19333 -0.38521 -1.19458
Ar -0.516654 0.177125 2.48635
Ar 0.197788 3.36146 1.60858
Ar 0.167447 1.74708 -0.444567
Ar 3.37924 2.01015 0.312794
Ar 1.04688 -0.327094 0.28862
Ar -1.15803 1.43572 2.57003
Ar -0.718995 2.92204 0.997319
Ar 3.47116 -0.117412 0.409232
Ar -1.99109 0.00681379 1.73191
Ar 1.20524 2.54691 -0.190526
Ar 2.32906 -0.355656 0.632022
Ar 2.28259 0.0704851 -1.08115
Ar 1.3563 0.655281 1.11602
15

Ar 1.60325 1.78636 3.19051
Ar 1.18719 -0.38223 -1.21089
Ar -0.514999 0.176009 2.49573
Ar 0.196778 3.36211 1.61184
Ar 0.18102 1.74344 -0.469957
Ar 3.37781 1.99636 0.330302
Ar 1.06529 -0.327308 0.312874
Ar -1.1502 1.46679 2.56418
Ar -0.719251 2.91774 0.980206
Ar 3.48551 -0.129635 0.387882
Ar -1.99099 0.00647656 1.75555
Ar 1.21059 2.54606 -0.187264
Ar 2.30594 -0.330551 0.665104
Ar 2.28293 0.0492393 -1.08958
Ar 1.3409 0.645384 1.09907
15

Ar 1.58924 1.79371 3.18714
Ar 1.18072 -0.379335 -1.22721
Ar -0.513152 0.174906 2.50512
Ar 0.196018 3.36275 1.61526
Ar 0.194677 1.73963 -0.495602
Ar 3.37615 1.98225 0.347836
Ar 1.0835 -0.327436 0.337062
Ar -1.14232 1.498 2.55824
Ar -0.719693 2.91317 0.96344
Ar 3.50011 -0.14142 0.366222
Ar -1.99076 0.00601855 1.77935
Ar 1.21585 2.54547 -0.183644
Ar 2.28274 -0.305504 0.697937
Ar 2.28344 0.028048 -1.09762
Ar 1.32524 0.635987 1.08201
15

Ar 1.57547 1.80058 3.18338
Ar 1.17392 -0.376527 -1.24352
Ar -0.511114 0.173828 2.51452
Ar 0.195483 3.36336 1.61884
Ar 0.208359 1.73566 -0.521459
Ar 3.37431 1.96778 0.365349
Ar 1.10147 -0.327529 0.361138
Ar -1.13439 1.52932 2.55223
Ar -0.720331 2.9084 0.947021
Ar 3.5149 -0.152787 0.344256
Ar -1.99043 0.00549611 1.80326
Ar 1.22103 2.54517 -0.179638
Ar 2.25959 -0.280525 0.730498
Ar 2.28415 0.00690714 -1.10522
Ar 1.30935 0.627097 1.0649
15

Ar 1.56198 1.80695 3.17918
Ar 1.16675 -0.373808 -1.2598
Ar -0.50889 0.172786 2.52393
Ar 0.195148 3.36395 1.62256
Ar 0.222018 1.73156 -0.547494
Ar 3.37234 1.95291 0.382805
Ar 1.11917 -0.32765 0.385049
Ar -1.12643 1.56074 2.54614
Ar -0.721174 2.90348 0.930947
Ar 3.52987 -0.163754 0.321989
Ar -1.99004 0.00496126 1.82723
Ar 1.2261 2.5452 -0.17522
Ar 2.23661 -0.255629 0.762762
Ar 2.28508 -0.0141922 -1.11231
Ar 1.29325 0.618742 1.04778
15

Ar 1.54877 1.81282 3.17451
Ar 1.15923 -0.371178 -1.27601
Ar -0.506483 0.171789 2.53335
Ar 0.19499 3.3645 1.62642
Ar 0.235609 1.72733 -0.573677
Ar 3.37026 1.93759 0.400174
Ar 1.13655 -0.327869 0.408737
Ar -1.11844 1.59225 2.53998
Ar -0.722231 2.89846 0.915213
Ar 3.54497 -0.174336 0.299431
Ar -1.98963 0.00446277 1.85119
Ar 1.23107 2.54556 -0.170363
Ar 2.21392 -0.230833 0.794693
Ar 2.28625 -0.0352642 -1.11881
Ar 1.27694 0.610963 1.03072
15

Ar 1.53587 1.81815 3.16937
Ar 1.15132 -0.368641 -1.29213
Ar -0.503896 0.170848 2.54278
Ar 0.194983 3.36502 1.63038
Ar 0.249092 1.72298 -0.599981
Ar 3.3681 1.92179 0.417438
Ar 1.15356 -0.328273 0.432137
Ar -1.11042 1.62385 2.53374
Ar -0.723512 2.89339 0.899814
Ar 3.56019 -0.184551 0.276592
Ar -1.98923 0.00404755 1.87506
Ar 1.23595 2.5463 -0.165045
Ar 2.19165 -0.20615 0.826265
Ar 2.28769 -0.0563289 -1.12464
Ar 1.26043 0.603821 1.01376
15

Ar 1.5233 1.82296 3.16372
Ar 1.14303 -0.366195 -1.30813
Ar -0.501133 0.169971 2.55223
Ar 0.195097 3.36549 1.63446
Ar 0.262432 1.71851 -0.626387
Ar 3.36588 1.90549 0.434583
Ar 1.17014 -0.328961 0.455178
Ar -1.10238 1.65552 2.52744
Ar -0.725023 2.88832 0.884741
Ar 3.57551 -0.194412 0.253483
Ar -1.98887 0.0037621 1.89876
Ar 1.24073 2.54741 -0.159253
Ar 2.16993 -0.18159 0.857458
Ar 2.28942 -0.0774125 -1.1297
Ar 1.24371 0.597391 0.996959
15

Ar 1.51107 1.82725 3.15755
Ar 1.13434 -0.363839 -1.32399
Ar -0.4982 0.169166 2.56169
Ar 0.195303 3.36591 1.63862
Ar 0.275593 1.71394 -0.652875
Ar 3.36362 1.88866 0.451602
Ar 1.18623 -0.330045 0.477786
Ar -1.09433 1.68725 2.52107
Ar -0.726769 2.88329 0.869981
Ar 3.59092 -0.203936 0.230118
Ar -1.98857 0.00365412 1.92221
Ar 1.24542 2.5489 -0.152977
Ar 2.14892 -0.157159 0.888252
Ar 2.29149 -0.098549 -1.13386
Ar 1.22675 0.591761 0.980359
15

Ar 1.4992 1.83102 3.15087
Ar 1.12524 -0.361574 -1.33969
Ar -0.495101 0.168441 2.57117
Ar 0.195578 3.36627 1.64285
Ar 0.288541 1.70926 -0.67943
Ar 3.36133 1.87128 0.468496
Ar 1.20177 -0.33165 0.499883
Ar -1.08626 1.71903 2.51465
Ar -0.728751 2.87836 0.85552
Ar 3.60641 -0.21314 0.206511
Ar -1.98838 0.00377405 1.94532
Ar 1.25003 2.55077 -0.146213
Ar 2.12872 -0.132851 0.918619
Ar 2.29392 -0.11978 -1.137
Ar 1.20952 0.58703 0.963996
15

Ar 1.48772 1.83431 3.14366
Ar 1.11573 -0.359401 -1.3552
Ar -0.491846 0.167804 2.58065
Ar 0.195902 3.36657 1.64714
Ar 0.30124 1.70448 -0.70604
Ar 3.35902 1.85336 0.485268
Ar 1.21671 -0.333908 0.521395
Ar -1.07819 1.75087 2.50816
Ar -0.730971 2.87354 0.841347
Ar 3.62196 -0.222041 0.182674
Ar -1.98831 0.00417625 1.96799
Ar 1.25458 2.553 -0.138966
Ar 2.10948 -0.108654 0.948558
Ar 2.29677 -0.141157 -1.13898
Ar 1.19198 0.5833 0.947894
15

Ar 1.47664 1.83712 3.13593
Ar 1.10581 -0.35732 -1.37052
Ar -0.488442 0.167261 2.59015
Ar 0.196253 3.36681 1.65147
Ar 0.313651 1.69959 -0.732693
Ar 3.3567 1.83488 0.501926
Ar 1.23099 -0.336955 0.542252
Ar -1.07012 1.78276 2.50162
Ar -0.733427 2.86887 0.827441
Ar 3.63759 -0.230658 0.158625
Ar -1.98841 0.00491966 1.99013
Ar 1.25906 2.55558 -0.131244
Ar 2.09132 -0.0845399 0.978079
Ar 2.30007 -0.162738 -1.13968
Ar 1.17409 0.580667 0.932063
15

Ar 1.46599 1.83948 3.1277
Ar 1.09547 -0.355334 -1.38561
Ar -0.484895 0.166819 2.59965
Ar 0.196608 3.36697 1.65583
Ar 0.325734 1.6946 -0.75938
Ar 3.35438 1.81587 0.51847
Ar 1.24459 -0.340919 0.562397
Ar -1.06205 1.81468 2.49503
Ar -0.736115 2.86436 0.81378
Ar 3.65327 -0.239005 0.134379
Ar -1.98869 0.00606737 2.01166
Ar 1.2635 2.55849 -0.123063
Ar 2.07433 -0.0604647 1.00719
Ar 2.30387 -0.184585 -1.13899
Ar 1.15577 0.579211 0.916497
15

Ar 1.45581 1.84143 3.11898
Ar 1.08471 -0.353441 -1.40047
Ar -0.481214 0.166485 2.60916
Ar 0.196949 3.36706 1.66019
Ar 0.337447 1.68949 -0.786094
Ar 3.35206 1.79632 0.534898
Ar 1.25749 -0.345914 0.581787
Ar -1.05399 1.84664 2.48843
Ar -0.739026 2.86004 0.800342
Ar 3.66902 -0.2471 0.109952
Ar -1.98918 0.00768496 2.03251
Ar 1.26789 2.56169 -0.114445
Ar 2.05859 -0.0363695 1.03592
Ar 2.30821 -0.206754 -1.13679
Ar 1.137 0.578992 0.901174
15

Ar 1.44612 1.84299 3.10978
Ar 1.07355 -0.351643 -1.41506
Ar -0.477406 0.166265 2.61867
Ar 0.197252 3.36706 1.66454
Ar 0.348745 1.68427 -0.81283
Ar 3.34975 1.77625 0.551226
Ar 1.26966 -0.352027 0.600397
Ar -1.04593 1.87861 2.4818
Ar -0.742141 2.8559 0.787102
Ar 3.68482 -0.254963 0.0853626
Ar -1.9899 0.00983726 2.05266
Ar 1.27224 2.56516 -0.105414
Ar 2.04417 -0.0121848 1.06426
Ar 2.31313 -0.22931 -1.133
Ar 1.11771 0.580037 0.886054
15

Ar 1.43697 1.84421 3.10015
Ar 1.06198 -0.349937 -1.42937
Ar -0.473482 0.166164 2.62817
Ar 0.197496 3.36697 1.66886
Ar 0.359578 1.67894 -0.839584
Ar 3.34744 1.75569 0.567466
Ar 1.28114 -0.359313 0.618206
Ar -1.03788 1.91059 2.47515
Ar -0.745443 2.85194 0.774038
Ar 3.70068 -0.262612 0.0606293
Ar -1.99087 0.0125839 2.07211
Ar 1.27656 2.56885 -0.0959997
Ar 2.03108 0.0121657 1.09221
Ar 2.31865 -0.252329 -1.12759
Ar 1.09788 0.582339 0.871091
15

Ar 1.4284 1.84513 3.0901
Ar 1.05003 -0.348323 -1.44337
Ar -0.469451 0.16619 2.63766
Ar 0.19766 3.36678 1.67313
Ar 0.369895 1.67347 -0.866355
Ar 3.34514 1.73465 0.583633
Ar 1.29194 -0.367792 0.635232
Ar -1.02985 1.94258 2.46849
Ar -0.748923 2.84817 0.761128
Ar 3.71659 -0.270066 0.0357745
Ar -1.99209 0.0159739 2.09089
Ar 1.28085 2.57274 -0.0862339
Ar 2.01931 0.0367609 1.11975
Ar 2.32479 -0.275879 -1.12054
Ar 1.07749 0.585856 0.856234
15

Ar 1.42045 1.8458 3.07968
Ar 1.03771 -0.346798 -1.45705
Ar -0.465323 0.166349 2.64714
Ar 0.19772 3.36649 1.67733
Ar 0.379641 1.66786 -0.893142
Ar 3.34285 1.71318 0.599739
Ar 1.30212 -0.377444 0.651516
Ar -1.02184 1.97457 2.46182
Ar -0.752573 2.84458 0.748349
Ar 3.73256 -0.277348 0.0108193
Ar -1.99355 0.0200411 2.10911
Ar 1.28513 2.57678 -0.076151
Ar 2.0088 0.0616766 1.14684
Ar 2.33155 -0.300014 -1.11189
Ar 1.05654 0.590517 0.841431
15

Ar 1.41317 1.84626 3.06891
Ar 1.02505 -0.345358 -1.47039
Ar -0.461111 0.166646 2.65658
Ar 0.197654 3.36609 1.68143
Ar 0.388762 1.6621 -0.919947
Ar 3.34057 1.6913 0.615796
Ar 1.31174 -0.388216 0.667115
Ar -1.01384 2.00657 2.45514
Ar -0.756385 2.84116 0.735682
Ar 3.74858 -0.284492 -0.0142151
Ar -1.99522 0.0247998 2.12688
Ar 1.28939 2.58094 -0.0657862
Ar 1.99947 0.0869814 1.17342
Ar 2.3389 -0.324772 -1.10171
Ar 1.03504 0.596229 0.826634
15

Ar 1.40662 1.84655 3.05782
Ar 1.01207 -0.343997 -1.48339
Ar -0.456827 0.167091 2.666
Ar 0.197436 3.36558 1.68542
Ar 0.397199 1.65619 -0.946777
Ar 3.3383 1.66906 0.631814
Ar 1.32088 -0.400029 0.682098
Ar -1.00586 2.03857 2.44845
Ar -0.76035 2.83788 0.723111
Ar 3.76465 -0.291516 -0.0393068
Ar -1.99707 0.0302439 2.14437
Ar 1.29364 2.58518 -0.0551759
Ar 1.99123 0.112734 1.19942
Ar 2.34682 -0.350175 -1.0901
Ar 1.01303 0.602884 0.8118
15

Ar 1.40085 1.84672 3.04647
Ar 0.998817 -0.342717 -1.49604
Ar -0.452484 0.167689 2.67536
Ar 0.197041 3.36494 1.68926
Ar 0.4049 1.6501 -0.973638
Ar 3.33604 1.64648 0.647803
Ar 1.32961 -0.412782 0.696543
Ar -0.9979 2.07056 2.44176
Ar -0.764459 2.83475 0.710617
Ar 3.78078 -0.29844 -0.0644325
Ar -1.99906 0.0363547 2.16176
Ar 1.29788 2.58946 -0.0443565
Ar 1.98396 0.138982 1.22473
Ar 2.35526 -0.376219 -1.07718
Ar 0.990541 0.610372 0.796898
15

Ar 1.39591 1.84681 3.03487
Ar 0.985327 -0.341521 -1.50833
Ar -0.448099 0.16845 2.68467
Ar 0.196442 3.36416 1.69293
Ar 0.411811 1.64384 -1.00054
Ar 3.33378 1.6236 0.663771
Ar 1.338 -0.426363 0.710533
Ar -0.989964 2.10253 2.43506
Ar -0.768703 2.83174 0.698188
Ar 3.79696 -0.30528 -0.0895678
Ar 1.99885 0.0430891 2.17923
Ar 1.30212 2.59374 -0.0333646
Ar 1.97754 0.165761 1.24928
Ar 2.36418 -0.40289 -1.0631
Ar 0.967622 0.618582 0.781906
15

Ar 1.39183 1.84687 3.02307
Ar 0.971647 -0.340398 -1.52023
Ar -0.443685 0.169382 2.6939
Ar 0.195611 3.36324 1.6964
Ar 0.417887 1.63739 -1.0275
Ar 3.33153 1.60044 0.679723
Ar 1.34612 -0.440653 0.724149
Ar -0.982055 2.13446 2.42837
Ar -0.773072 2.82885 0.685812
Ar 3.81321 -0.312058 -0.114687
Ar 1.99672 0.0503866 2.19698
Ar 1.30635 2.59799 -0.0222366
Ar 1.97185 0.193098 1.27298
Ar 2.37351 -0.430156 -1.04799
Ar 0.944323 0.627411 0.76681
15

Ar 1.38866 1.84692 3.01111
Ar 0.957826 -0.339338 -1.53175
Ar -0.439262 0.170495 2.70304
Ar 0.194518 3.36217 1.69963
Ar 0.423089 1.63074 -1.05452
Ar 3.32928 1.57703 0.695665
Ar 1.35403 -0.455534 0.737468
Ar -0.974171 2.16637 2.42167
Ar -0.777559 2.82605 0.673484
Ar 3.82952 -0.318792 -0.139762
Ar 1.99458 0.0581771 2.21515
Ar 1.31057 2.60217 -0.0110086
Ar 1.96679 0.221011 1.29573
Ar 2.3832 -0.457979 -1.03197
Ar 0.920692 0.636765 0.751605
15

Ar 1.38643 1.847 2.99903
Ar 0.943917 -0.338326 -1.54286
Ar -0.434846 0.17181 2.71206
Ar 0.193131 3.36093 1.7026
Ar 0.427389 1.62388 -1.08162
Ar 3.32704 1.55339 0.711601
Ar 1.36178 -0.470892 0.750566
Ar -0.96631 2.19823 2.41497
Ar -0.782154 2.82333 0.661197
Ar 3.84589 -0.325502 -0.164765
Ar 1.99248 0.0663854 2.23389
Ar 1.31478 2.60625 0.000283704
Ar 1.96226 0.24951 1.3175
Ar 2.3932 -0.48631 -1.01519
Ar 0.896777 0.646563 0.736289
15

Ar 1.38515 1.84714 2.98685
Ar 0.929976 -0.337347 -1.55355
Ar -0.430458 0.173351 2.72095
Ar 0.191418 3.35951 1.70526
Ar 0.430769 1.6168 -1.10882
Ar 3.32479 1.52956 0.72753
Ar 1.36942 -0.48662 0.763512
Ar -0.958472 2.23002 2.40827
Ar -0.786848 2.82069 0.648943
Ar 3.86235 -0.332211 -0.189665
Ar 1.99046 0.0749366 2.25331
Ar 1.31899 2.61019 0.0116047
Ar 1.95817 0.278597 1.33822
Ar 2.40345 -0.515098 -0.997745
Ar 0.872621 0.656733 0.720868
15

Ar 1.38482 1.84736 2.9746
Ar 0.916061 -0.336383 -1.5638
Ar -0.426119 0.175134 2.72969
Ar 0.189346 3.3579 1.70759
Ar 0.433225 1.6095 -1.13613
Ar 3.32254 1.50556 0.743452
Ar 1.37698 -0.502618 0.776371
Ar -0.950653 2.26173 2.40156
Ar -0.791632 2.8181 0.636716
Ar 3.87888 -0.338941 -0.214431
Ar 1.98854 0.0837588 2.27349
Ar 1.32317 2.61396 0.0229189
Ar 1.95444 0.308268 1.3579
Ar 2.4139 -0.54429 -0.979738
Ar 0.848266 0.667215 0.705351
15

Ar 1.38544 1.84769 2.96233
Ar 0.902236 -0.335415 -1.57359
Ar -0.421851 0.177174 2.73825
Ar 0.186879 3.35609 1.70954
Ar 0.434764 1.60196 -1.16356
Ar 3.3203 1.4814 0.759366
Ar 1.3845 -0.518794 0.789202
Ar -0.94285 2.29335 2.39484
Ar -0.7965 2.81556 0.624513
Ar 3.89551 -0.345715 -0.239028
Ar 1.98674 0.0927871 2.29446
Ar 1.32734 2.61752 0.0341912
Ar 1.95102 0.338515 1.37653
Ar 2.42451 -0.573832 -0.961253
Ar 0.823746 0.677957 0.689749
15

Ar 1.38698 1.84814 2.95005
Ar 0.888563 -0.334421 -1.5829
Ar -0.417679 0.179488 2.74662
Ar 0.183983 3.35405 1.71107
Ar 0.435407 1.5942 -1.19113
Ar 3.31805 1.4571 0.775276
Ar 1.39201 -0.535068 0.802061
Ar -0.935059 2.32487 2.38811
Ar -0.801441 2.81305 0.612329
Ar 3.91224 -0.35256 -0.263424
Ar 1.98508 0.101965 2.31625
Ar 1.33147 2.62086 0.0453861
Ar 1.94784 0.36932 1.39415
Ar 2.43523 -0.603671 -0.942361
Ar 0.799096 0.688918 0.674072
15

Ar 1.38941 1.84872 2.93778
Ar 0.875107 -0.333378 -1.59172
Ar -0.413628 0.182097 2.75476
Ar 0.180623 3.35178 1.71215
Ar 0.435188 1.58622 -1.21885
Ar 3.31579 1.4327 0.79118
Ar 1.39953 -0.551366 0.815
Ar -0.927276 2.35627 2.38135
Ar -0.806448 2.81057 0.600164
Ar 3.92909 -0.359501 -0.287582
Ar 1.98358 0.111244 2.33884
Ar 1.33557 2.62393 0.0564685
Ar 1.94486 0.400662 1.4108
Ar 2.44603 -0.633757 -0.923118
Ar 0.774344 0.70006 0.658328
15

Ar 1.39269 1.84944 2.92555
Ar 0.861932 -0.332261 -1.60003
Ar -0.409726 0.185022 2.76266
Ar 0.176767 3.34925 1.71271
Ar 0.434149 1.57801 -1.2467
Ar 3.31352 1.4082 0.807072
Ar 1.40708 -0.567621 0.828064
Ar -0.919495 2.38755 2.37455
Ar -0.811512 2.8081 0.588016
Ar 3.94607 -0.366567 -0.311455
Ar 1.98222 0.120587 2.36221
Ar 1.33963 2.6267 0.0674031
Ar 1.94206 0.432515 1.42654
Ar 2.45688 -0.664041 -0.903571
Ar 0.749518 0.711355 0.642526
15

Ar 1.39677 1.85029 2.91337
Ar 0.8491 -0.331046 -1.6078
Ar -0.406001 0.188284 2.7703
Ar 0.172384 3.34646 1.71271
Ar 0.43234 1.56961 -1.2747
Ar 3.31125 1.38363 0.82295
Ar 1.41467 -0.583772 0.841301
Ar -0.911709 2.41867 2.3677
Ar -0.816626 2.80564 0.575885
Ar 3.96319 -0.373788 -0.334995
Ar 1.98102 0.129965 2.38632
Ar 1.34363 2.62916 0.0781549
Ar 1.93939 0.464846 1.44143
Ar 2.46773 -0.694477 -0.883754
Ar 0.724639 0.722777 0.626673
15

Ar 1.40159 1.85128 2.90124
Ar 0.83667 -0.329707 -1.61502
Ar -0.402482 0.191908 2.77765
Ar 0.167447 3.34338 1.71212
Ar 0.429815 1.56101 -1.30285
Ar 3.30895 1.35899 0.838814
Ar 1.42232 -0.599767 0.854754
Ar -0.903912 2.44964 2.36079
Ar -0.821781 2.80319 0.563772
Ar 3.98047 -0.381192 -0.358169
Ar 1.97997 0.139356 2.41112
Ar 1.34759 2.63126 0.0886893
Ar 1.93683 0.497622 1.45556
Ar 2.47857 -0.725024 -0.863695
Ar 0.699732 0.734306 0.610777
15

Ar 1.4071 1.8524 2.88918
Ar 0.824697 -0.328221 -1.62169
Ar -0.399199 0.195919 2.7847
Ar 0.161934 3.34001 1.71089
Ar 0.426633 1.55223 -1.33114
Ar 3.30662 1.3343 0.854665
Ar 1.43003 -0.615557 0.868465
Ar -0.896099 2.48043 2.3538
Ar -0.826968 2.80072 0.551681
Ar 3.99793 -0.38881 -0.380944
Ar 1.97907 0.148745 2.43654
Ar 1.35148 2.633 0.0989724
Ar 1.93437 0.530808 1.46901
Ar 2.48936 -0.755644 -0.843413
Ar 0.674814 0.745922 0.594843
15

Ar 1.41323 1.85364 2.87718
Ar 0.813231 -0.326564 -1.62779
Ar -0.396182 0.200339 2.79144
Ar 0.15583 3.33632 1.709
Ar 0.422851 1.54329 -1.35958
Ar 3.30426 1.30958 0.870504
Ar 1.43783 -0.631102 0.882472
Ar -0.888264 2.51103 2.3467
Ar -0.832179 2.79825 0.539616
Ar 0.0155679 -0.396673 -0.403291
Ar 1.97832 0.158122 2.46253
Ar 1.35531 2.63434 0.108972
Ar 1.93198 0.564367 1.48183
Ar 2.50009 -0.786304 -0.82292
Ar 0.649906 0.757612 0.578875
15

Ar 1.41993 1.85501 2.86526
Ar 0.802313 -0.324717 -1.63332
Ar -0.393459 0.205192 2.79785
Ar 0.149126 3.3323 1.70643
Ar 0.418527 1.53421 -1.38816
Ar 3.30186 1.28484 0.886331
Ar 1.44571 -0.646366 0.896807
Ar -0.880403 2.54143 2.33949
Ar -0.837405 2.79575 0.527581
Ar 0.0334105 -0.404808 -0.425186
Ar 1.97771 0.167481 2.48904
Ar 1.35905 2.63526 0.118656
Ar 1.92964 0.598262 1.49411
Ar 2.51072 -0.816976 -0.802226
Ar 0.625025 0.769363 0.562877
15

Ar 1.42713 1.85648 2.85343
Ar 0.791979 -0.322663 -1.6383
Ar -0.391057 0.210497 2.80394
Ar 0.141822 3.32796 1.70315
Ar 0.413718 1.52501 -1.41687
Ar 3.29942 1.2601 0.902145
Ar 1.45369 -0.661319 0.911503
Ar -0.872517 2.57162 2.33215
Ar -0.842636 2.79324 0.515585
Ar 0.0514689 -0.413242 -0.446608
Ar 1.97724 0.176819 2.51601
Ar 1.36272 2.63576 0.127996
Ar 1.92736 0.632458 1.50591
Ar 2.52125 -0.847638 -0.78134
Ar 0.600186 0.781163 0.54685
15

Ar 1.43478 1.85806 2.84166
Ar 0.782256 -0.320386 -1.64273
Ar -0.388998 0.216271 2.80971
Ar 0.133926 3.32329 1.69916
Ar 0.408477 1.5157 -1.44571
Ar 3.29692 1.23536 0.917949
Ar 1.46178 -0.675938 0.926588
Ar -0.864609 2.6016 2.32465
Ar -0.847862 2.79069 0.50364
Ar 0.0697544 -0.421997 -0.46754
Ar 1.97689 0.186135 2.54339
Ar 1.36629 2.63582 0.136966
Ar 1.9251 0.666919 1.51728
Ar 2.53166 -0.878274 -0.76027
Ar 0.575408 0.793003 0.530794
15

Ar 1.44284 1.85973 2.82997
Ar 0.773162 -0.317876 -1.64665
Ar -0.387305 0.222527 2.81517
Ar 0.125457 3.31829 1.69446
Ar 0.402853 1.5063 -1.47467
Ar 3.29436 1.21063 0.933744
Ar 1.46997 -0.690205 0.942089
Ar -0.856686 2.63137 2.317
Ar -0.853071 2.7881 0.491758
Ar 0.0882749 -0.431093 -0.487973
Ar 1.97666 0.19543 2.57113
Ar 1.36975 2.63543 0.145544
Ar 1.92287 0.701608 1.52828
Ar 2.54194 -0.908872 -0.739027
Ar 0.550704 0.804871 0.514714
15

Ar 1.45124 1.86149 2.81836
Ar 0.764709 -0.315127 -1.65008
Ar -0.385991 0.229271 2.82033
Ar 0.116443 3.31299 1.68904
Ar 0.396892 1.49683 -1.50375
Ar 3.29173 1.18592 0.949533
Ar 1.47828 -0.704108 0.958027
Ar -0.848762 2.66092 2.30919
Ar -0.858251 2.78549 0.479956
Ar 0.107034 -0.440544 -0.507897
Ar 1.97654 0.204705 2.59918
Ar 1.37311 2.63459 0.153711
Ar 1.92065 0.736497 1.53896
Ar 2.55206 -0.939428 -0.717629
Ar 0.52609 0.816758 0.498606
15

Ar 1.45994 1.86333 2.80681
Ar 0.756901 -0.312136 -1.65306
Ar -0.385068 0.236505 2.82522
Ar 0.106919 3.30738 1.6829
Ar 0.390635 1.4873 -1.53292
Ar 3.28902 1.16123 0.96532
Ar 1.48671 -0.717639 0.974419
Ar -0.840857 2.69025 2.30122
Ar -0.863386 2.78283 0.468252
Ar 0.12603 -0.450358 -0.527311
Ar 1.97652 0.213961 2.62752
Ar 1.37635 2.63331 0.161453
Ar 1.91844 0.771559 1.54936
Ar 2.56204 -0.969939 -0.6961
Ar 0.501582 0.828659 0.482456
15

Ar 1.46892 1.86525 2.79532
Ar 0.749735 -0.308903 -1.65564
Ar -0.384542 0.244224 2.82987
Ar 0.0969312 3.3015 1.67607
Ar 0.38412 1.47774 -1.56216
Ar 3.28623 1.13657 0.981109
Ar 1.49526 -0.730797 0.991277
Ar -0.832998 2.71937 2.2931
Ar -0.868461 2.78013 0.45667
Ar 0.145256 -0.460541 -0.546215
Ar 1.97659 0.223201 2.6561
Ar 1.37947 2.63158 0.168761
Ar 1.91622 0.806767 1.5595
Ar 2.57186 -1.00041 -0.674473
Ar 0.477192 0.84057 0.46625
15

Ar 1.47812 1.86723 2.7839
Ar 0.743205 -0.305428 -1.65787
Ar -0.384414 0.252418 2.8343
Ar 0.0865315 3.29536 1.66854
Ar 0.377381 1.46815 -1.59148
Ar 3.28335 1.11193 0.996903
Ar 1.50393 -0.743586 1.00861
Ar -0.825217 2.74829 2.28486
Ar -0.873456 2.77738 0.445238
Ar 0.1647 -0.471089 -0.56461
Ar 1.97675 0.232424 2.68491
Ar 1.38245 2.62941 0.17563
Ar 1.914 0.842095 1.56943
Ar 2.58151 -1.03084 -0.652791
Ar 0.452931 0.852488 0.449983
15

Ar 1.48751 1.86928 2.77254
Ar 0.737299 -0.301717 -1.65981
Ar -0.384678 0.261071 2.83855
Ar 0.0757802 3.289 1.66034
Ar 0.370447 1.45856 -1.62086
Ar 3.28036 1.08732 1.01271
Ar 1.51274 -0.756014 1.02641
Ar -0.817553 2.77699 2.27651
Ar -0.878348 2.77459 0.433994
Ar 0.184346 -0.482 -0.582499
Ar 1.977 0.241634 2.71392
Ar 1.3853 2.62683 0.182062
Ar 1.91176 0.877522 1.57915
Ar 2.591 -1.06123 -0.63111
Ar 0.428811 0.864413 0.433646
15

Ar 1.49707 1.87139 2.76123
Ar 0.732004 -0.297774 -1.66153
Ar -0.385326 0.270164 2.84266
Ar 0.0647437 3.28244 1.65147
Ar 0.363346 1.44897 -1.6503
Ar 3.27728 1.06273 1.02853
Ar 1.52167 -0.768093 1.04468
Ar -0.810051 2.80549 2.2681
Ar -0.883108 2.77173 0.422984
Ar 0.204172 -0.493265 -0.599881
Ar 1.97732 0.250831 2.7431
Ar 1.388 2.62384 0.188062
Ar 1.90951 0.91303 1.5887
Ar 2.60031 -1.09159 -0.609495
Ar 0.404841 0.876343 0.417234
15

Ar 1.50677 1.87357 2.74999
Ar 0.727305 -0.293603 -1.66309
Ar -0.386345 0.279673 2.84666
Ar 0.0534942 3.27573 1.64193
Ar 0.356101 1.4394 -1.67979
Ar 3.27408 1.03816 1.04436
Ar 1.53073 -0.779837 1.06342
Ar -0.802762 2.83377 2.25966
Ar -0.887703 2.76883 0.412266
Ar 0.224154 -0.504873 -0.616755
Ar 1.97771 0.260016 2.77245
Ar 1.39055 2.62045 0.193642
Ar 1.90724 0.948601 1.59809
Ar 2.60943 -1.12193 -0.588026
Ar 0.381026 0.88828 0.400738
15

Ar 1.51657 1.87582 2.7388
Ar 0.723187 -0.289206 -1.66455
Ar -0.38772 0.289573 2.85057
Ar 0.0421086 3.26888 1.63174
Ar 0.348735 1.42986 -1.70932
Ar 3.27077 1.01361 1.06022
Ar 1.53992 -0.791265 1.0826
Ar -0.79574 2.86183 2.25124
Ar -0.892094 2.76586 0.401913
Ar 0.244265 -0.516815 -0.633116
Ar 1.97816 0.269191 2.80194
Ar 1.39294 2.6167 0.198817
Ar 1.90495 0.984216 1.60733
Ar 2.61834 -1.15223 -0.566796
Ar 0.357371 0.900225 0.384151
15

Ar 1.52647 1.87812 2.72768
Ar 0.719633 -0.284587 -1.66599
Ar -0.389431 0.299836 2.85443
Ar 0.0306684 3.26195 1.62088
Ar 0.341265 1.42036 -1.73889
Ar 3.26735 0.989065 1.07611
Ar 1.54924 -0.802394 1.10221
Ar -0.789046 2.88966 2.2429
Ar -0.896232 2.76283 0.392011
Ar 0.264475 -0.529079 -0.648955
Ar 1.97867 0.278357 2.83157
Ar 1.39518 2.61261 0.203603
Ar 1.90265 1.01986 1.61642
Ar 2.627 -1.18251 -0.545916
Ar 0.333879 0.912178 0.367468
15

Ar 1.53644 1.8805 2.71662
Ar 0.716626 -0.279744 -1.66747
Ar -0.391461 0.310434 2.85828
Ar 0.0192583 3.25494 1.60936
Ar 0.333709 1.4109 -1.76849
Ar 3.2638 0.964519 1.09202
Ar 1.55868 -0.813247 1.12224
Ar -0.782744 2.91725 2.2347
Ar -0.900059 2.75976 0.382665
Ar 0.284756 -0.541659 -0.664259
Ar 1.97923 0.287514 2.86133
Ar 1.39726 2.60819 0.208023
Ar 1.90032 1.05552 1.62537
Ar 2.63539 -1.21278 -0.525512
Ar 0.310549 0.924144 0.350683
15

Ar 1.54646 1.88296 2.70565
Ar 0.714152 -0.274674 -1.66907
Ar -0.393789 0.321341 2.86212
Ar 0.00796469 3.24791 1.59714
Ar 0.326083 1.40151 -1.79812
Ar 3.26014 0.939965 1.10796
Ar 1.56824 -0.823844 1.14265
Ar -0.776899 2.9446 2.22669
Ar -0.903507 2.75665 0.374001
Ar 0.305078 -0.554546 -0.679012
Ar 1.97984 0.296663 2.8912
Ar 1.39918 2.60347 0.212099
Ar 1.89799 1.09118 1.63418
Ar 2.64345 -1.24306 -0.505728
Ar 0.28738 0.936127 0.333792
15

Ar 1.55651 1.88549 2.69476
Ar 0.712194 -0.269371 -1.67085
Ar -0.396394 0.332529 2.86599
Ar -0.00312533 3.24087 1.58422
Ar 0.3184 1.39217 -1.82777
Ar 3.25636 0.9154 1.12392
Ar 1.57792 -0.834206 1.16343
Ar -0.771579 2.97168 2.21896
Ar -0.906496 2.75352 0.366161
Ar 0.325414 -0.567738 -0.693196
Ar 1.9805 0.305806 2.92117
Ar 1.40094 2.59848 0.215852
Ar 1.89565 1.12683 1.64283
Ar 2.65111 -1.27335 -0.486727
Ar 0.264367 0.948132 0.316797
15

Ar 1.56657 1.88812 2.68398
Ar 0.710735 -0.263825 -1.67287
Ar -0.399256 0.343974 2.8699
Ar -0.0139268 3.23383 1.57056
Ar 0.310673 1.38291 -1.85743
Ar 3.25246 0.89082 1.1399
Ar 1.58772 -0.844355 1.18455
Ar -0.766847 2.99851 2.21156
Ar -0.908938 2.75041 0.359309
Ar 0.345738 -0.581234 -0.706792
Ar 1.9812 0.314942 2.95125
Ar 1.40253 2.59323 0.219305
Ar 1.89332 1.16245 1.65131
Ar 2.65829 -1.3037 -0.468689
Ar 0.241504 0.960163 0.299704
15

Ar 1.57664 1.89086 2.67332
Ar 0.70976 -0.258026 -1.6752
Ar -0.402356 0.355652 2.87387
Ar -0.0243589 3.22682 1.55612
Ar 0.302916 1.37373 -1.88711
Ar 3.24844 0.866219 1.1559
Ar 1.59762 -0.854295 1.20599
Ar -0.762767 3.02507 2.20457
Ar -0.910737 2.74736 0.353616
Ar 0.366029 -0.595038 -0.719779
Ar 1.98193 0.324073 2.98143
Ar 1.40396 2.58775 0.222483
Ar 1.891 1.198 1.65961
Ar 2.66492 -1.33415 -0.4518
Ar 0.218783 0.972225 0.282514
15

Ar 1.58668 1.89371 2.66281
Ar 0.709251 -0.251961 -1.67789
Ar -0.405672 0.367541 2.87791
Ar -0.0343466 3.21983 1.5409
Ar 0.295139 1.36463 -1.91678
Ar 3.2443 0.841588 1.17191
Ar 1.60763 -0.864038 1.22771
Ar -0.75939 3.05137 2.19806
Ar -0.911793 2.74444 0.349258
Ar 0.386267 -0.609153 -0.732141
Ar 1.98268 0.333199 3.0117
Ar 1.40524 2.58206 0.22541
Ar 1.8887 1.23347 1.66771
Ar 2.67089 -1.36476 -0.436252
Ar 0.196195 0.98432 0.26523
15

Ar 1.59668 1.8967 2.65249
Ar 0.709187 -0.245614 -1.68098
Ar -0.409186 0.379622 2.88204
Ar -0.0438285 3.21286 1.52485
Ar 0.287353 1.35562 -1.94646
Ar 3.24004 0.816922 1.18791
Ar 1.61773 -0.873601 1.24969
Ar -0.756759 3.07744 2.19208
Ar -0.912015 2.74171 0.346396
Ar 0.406438 -0.623586 -0.743863
Ar 1.98347 0.342323 3.04206
Ar 1.40635 2.57619 0.228112
Ar 1.88644 1.26881 1.67558
Ar 2.67613 -1.39561 -0.422223
Ar 0.173731 0.996453 0.24786
15

Ar 1.60663 1.89984 2.64239
Ar 0.709549 -0.238971 -1.6845
Ar -0.412876 0.391877 2.88624
Ar -0.0527574 3.20591 1.50797
Ar 0.27957 1.34671 -1.97614
Ar 3.23566 0.792216 1.20391
Ar 1.62793 -0.883 1.27191
Ar -0.754904 3.1033 2.18669
Ar -0.911325 2.73928 0.34516
Ar 0.42653 -0.638346 -0.754933
Ar 1.98427 0.351444 3.0725
Ar 1.40731 2.57014 0.230612
Ar 1.88425 1.30402 1.68317
Ar 2.68056 -1.42678 -0.409855
Ar 0.151383 1.00862 0.23041
15

Ar 1.6165 1.90316 2.63256
Ar 0.710313 -0.232019 -1.68848
Ar -0.416725 0.40429 2.89055
Ar -0.0611026 3.19894 1.49024
Ar 0.271801 1.33789 1.9942
Ar 3.23115 0.767465 1.21988
Ar 1.63822 -0.892246 1.29432
Ar -0.753836 3.12896 2.18193
Ar -0.909672 2.73721 0.345632
Ar 0.446537 -0.653439 -0.765341
Ar 1.98509 0.360564 3.10303
Ar 1.40811 2.56394 0.232933
Ar 1.88212 1.33905 1.69044
Ar 2.68412 -1.45836 -0.399239
Ar 0.12914 1.02084 0.212888
15

Ar 1.62626 1.90668 2.62307
Ar 0.711456 -0.224744 -1.69293
Ar -0.420718 0.416846 2.89494
Ar -0.0688498 3.19195 1.47167
Ar 0.264057 1.32918 1.96454
Ar 3.22652 0.742668 1.23582
Ar 1.64858 -0.901353 1.31691
Ar -0.753551 3.15447 2.17781
Ar -0.907037 2.73561 0.34783
Ar 0.466454 -0.668872 -0.775092
Ar 1.98592 0.369684 3.13365
Ar 1.40877 2.5576 0.235098
Ar 1.8801 1.37386 1.69733
Ar 2.68682 -1.49043 -0.390406
Ar 0.106995 1.03309 0.195304
15

Ar 1.6359 1.91044 2.61398
Ar 0.712951 -0.217138 -1.69787
Ar -0.424842 0.429531 2.89944
Ar -0.0760009 3.18491 1.45229
Ar 0.256349 1.32057 1.9349
Ar 3.22175 0.717826 1.25171
Ar 1.65903 -0.91033 1.33965
Ar -0.754028 3.17986 2.17435
Ar -0.903438 2.73451 0.351709
Ar 0.486282 -0.684643 -0.784195
Ar 1.98676 0.378805 3.16434
Ar 1.40928 2.55113 0.237127
Ar 1.87819 1.40843 1.70377
Ar 2.68865 -1.52305 -0.383319
Ar 0.084939 1.04539 0.17767
15

Ar 1.6454 1.91447 2.60538
Ar 0.714772 -0.209194 -1.70329
Ar -0.429084 0.442336 2.90403
Ar -0.0825719 3.17779 1.43212
Ar 0.248689 1.31207 1.90527
Ar 3.21683 0.69295 1.26754
Ar 1.66955 -0.919183 1.36252
Ar -0.755231 3.20515 2.17153
Ar -0.898929 2.73396 0.357159
Ar 0.506023 -0.700749 -0.792669
Ar 1.98761 0.387928 3.19511
Ar 1.40965 2.54456 0.239038
Ar 1.87643 1.44269 1.70968
Ar 2.68966 -1.55627 -0.377881
Ar 0.0629669 1.05774 0.159999
15

Ar 1.65471 1.9188 2.59738
Ar 0.716893 -0.200909 -1.70918
Ar -0.433432 0.455242 2.90871
Ar -0.0885892 3.17057 1.41123
Ar 0.241086 1.30367 1.87567
Ar 3.21177 0.668043 1.2833
Ar 1.68014 -0.927917 1.3855
Ar -0.757112 3.23037 2.16933
Ar -0.893592 2.73397 0.364026
Ar 0.525682 -0.717187 -0.800539
Ar 1.98846 0.397055 3.22596
Ar 1.40989 2.53789 0.240849
Ar 1.87484 1.47661 1.71496
Ar 2.68995 -1.5901 -0.373947
Ar 0.0410727 1.07013 0.142303
15

Ar 1.66383 1.92347 2.59009
Ar 0.719287 -0.192286 -1.71552
Ar -0.437876 0.468236 2.91348
Ar -0.094086 3.16324 1.38967
Ar 0.233552 1.29539 1.84609
Ar 3.20656 0.643107 1.29897
Ar 1.69079 -0.936534 1.40857
Ar -0.759615 3.25554 2.16772
Ar -0.887527 2.73453 0.372121
Ar 0.545262 -0.73395 -0.807839
Ar 1.98932 0.406182 3.25689
Ar 1.41 2.53114 0.242578
Ar 1.87345 1.51013 1.71948
Ar 2.68959 -1.62451 -0.371344
Ar 0.0192528 1.08256 0.124598
15

Ar 1.67272 1.92852 2.58363
Ar 0.721929 -0.183331 -1.72228
Ar -0.442405 0.481306 2.91834
Ar -0.0990981 3.15579 1.36752
Ar 0.226096 1.28723 1.81652
Ar 3.20118 0.618145 1.31455
Ar 1.70149 -0.945032 1.43169
Ar -0.762679 3.28067 2.16666
Ar -0.880848 2.73559 0.381248
Ar 0.564772 -0.751028 -0.814605
Ar 1.99017 0.415298 3.28789
Ar 1.40998 2.5243 0.244238
Ar 1.87229 1.5432 1.72313
Ar 2.68868 -1.65946 -0.369887
Ar -0.00249546 1.09504 0.106896
15

Ar 1.68134 1.93398 2.57817
Ar 0.724795 -0.174052 -1.72943
Ar -0.44701 0.494445 2.92326
Ar -0.103659 3.14823 1.34486
Ar 0.218729 1.2792 1.78699
Ar 3.19563 0.593166 1.33002
Ar 1.71226 -0.953406 1.45487
Ar -0.766244 3.30576 2.16609
Ar -0.873666 2.73712 0.391208
Ar 0.584216 -0.768407 -0.820878
Ar 1.99101 0.424402 3.31896
Ar 1.40984 2.5174 0.245844
Ar 1.87138 1.57576 1.72577
Ar 2.68733 -1.69491 -0.369394
Ar -0.0241701 1.10756 0.089214
15

Ar 1.68967 1.93988 2.57383
Ar 0.727862 -0.164462 -1.73694
Ar -0.451683 0.507642 2.92825
Ar -0.1078 3.14054 1.32177
Ar 0.211458 1.2713 1.75747
Ar 3.1899 0.568177 1.34538
Ar 1.72307 -0.96165 1.47807
Ar -0.770248 3.33081 2.16598
Ar -0.866092 2.73905 0.401816
Ar 0.6036 -0.78607 -0.8267
Ar 1.99183 0.433494 3.35011
Ar 1.4096 2.51044 0.247408
Ar 1.87075 1.60776 1.72724
Ar 2.68562 -1.73079 -0.369699
Ar -0.0457613 1.12013 0.0715663
15

Ar 1.6977 1.94623 2.57077
Ar 0.73111 -0.154576 -1.74479
Ar -0.456418 0.520888 2.93329
Ar -0.11154 3.13275 1.29833
Ar 0.204293 1.26355 1.72798
Ar 3.18399 0.543192 1.36062
Ar 1.73392 -0.969752 1.50128
Ar -0.774636 3.3558 2.16629
Ar -0.858231 2.74131 0.412901
Ar 0.622927 -0.803998 -0.832114
Ar 1.99262 0.442574 3.38132
Ar 1.40924 2.50342 0.248942
Ar 1.87043 1.63917 1.72742
Ar 2.68364 -1.76706 -0.370654
Ar -0.0672653 1.13275 0.0539706
15

Ar 1.70539 1.95304 2.56912
Ar 0.734522 -0.144412 -1.75292
Ar -0.461207 0.534172 2.93837
Ar -0.114893 3.12487 1.27465
Ar 0.197237 1.25594 1.6985
Ar 3.17788 0.518225 1.37573
Ar 1.74481 -0.977696 1.52448
Ar -0.779355 3.38072 2.16696
Ar -0.850182 2.74384 0.424308
Ar 0.642201 -0.822168 -0.837163
Ar 1.99338 0.45164 3.41259
Ar 1.40879 2.49636 0.250456
Ar 1.87044 1.66994 1.72615
Ar 2.68145 -1.80365 -0.372131
Ar -0.0886774 1.14542 0.0364449
15

Ar 1.71273 1.9603 2.56899
Ar 0.73808 -0.133986 -1.76131
Ar -0.466046 0.547482 2.94347
Ar -0.117858 3.11694 1.25081
Ar 0.190297 1.24848 1.66904
Ar 3.17158 0.493297 1.3907
Ar 1.75573 -0.985461 1.54765
Ar -0.78436 3.40555 2.16798
Ar -0.842042 2.74658 0.435897
Ar 0.661423 -0.840558 -0.841888
Ar 1.9941 0.46069 3.44391
Ar 1.40825 2.48925 0.251956
Ar 1.87078 1.70006 1.72335
Ar 2.67911 -1.84052 -0.374024
Ar -0.109991 1.15814 0.0190085
15

Ar 1.71973 1.96797 2.57045
Ar 0.741773 -0.123319 -1.76992
Ar -0.47093 0.560807 2.94857
Ar -0.120419 3.10898 1.2269
Ar 0.183475 1.24117 1.63958
Ar 3.16507 0.468435 1.40552
Ar 1.76667 -0.993019 1.57079
Ar -0.789607 3.43026 2.16932
Ar -0.833904 2.74945 0.447539
Ar 0.680592 -0.859139 -0.846328
Ar 1.99478 0.469722 3.47529
Ar 1.40762 2.48211 0.253448
Ar 1.87145 1.72951 1.71894
Ar 2.67665 -1.87759 -0.376245
Ar -0.131197 1.1709 0.00168253
15

Ar 1.72639 1.97601 2.57354
Ar 0.745588 -0.112428 -1.77872
Ar -0.475856 0.574133 2.95365
Ar -0.122546 3.10102 1.20302
Ar 0.176772 1.23401 1.61014
Ar 3.15837 0.443674 1.42017
Ar 1.77764 -1.00034 1.59386
Ar -0.795061 3.45481 2.17096
Ar -0.825865 2.7524 0.459109
Ar 0.6997 -0.877881 -0.850519
Ar 1.99542 0.478732 3.50672
Ar 1.40692 2.47494 0.254942
Ar 1.87245 1.75829 1.7129
Ar 2.67413 -1.91484 -0.378721
Ar -0.152282 1.18372 -0.0155099
15

Ar 1.73272 1.98437 2.57824
Ar 0.749515 -0.101331 -1.78768
Ar -0.480819 0.587444 2.9587
Ar -0.124192 3.09311 1.17927
Ar 0.170188 1.22699 1.58071
Ar 3.15146 0.419055 1.43461
Ar 1.78862 -1.00737 1.61686
Ar -0.800688 3.47915 2.17291
Ar -0.818029 2.75536 0.47049
Ar 0.71874 -0.896759 -0.854495
Ar 1.996 0.487706 3.5382
Ar 1.40614 2.46774 0.256445
Ar 1.87377 1.78641 1.70523
Ar 2.67157 -1.95222 -0.381396
Ar -0.173232 1.19658 -0.0325435
15

Ar 1.73874 1.99296 2.58449
Ar 0.753547 -0.0900471 -1.79679
Ar -0.485818 0.600724 2.96368
Ar -0.125285 3.0853 1.15577
Ar 0.163721 1.22012 1.55127
Ar 3.14434 0.394631 1.44881
Ar 1.79961 -1.01406 1.63977
Ar -0.806459 3.50324 2.17519
Ar -0.81051 2.75827 0.481559
Ar 0.737709 -0.915748 -0.858286
Ar 1.99653 0.496635 3.56973
Ar 1.4053 2.46053 0.257963
Ar 1.87538 1.81388 1.696
Ar 2.66899 -1.98969 -0.384219
Ar -0.19403 1.20951 -0.0493904
15

Ar 1.74448 2.00173 2.5922
Ar 0.757678 -0.078592 -1.80601
Ar -0.49085 0.613951 2.96856
Ar -0.125729 3.07765 1.13261
Ar 0.157367 1.21338 1.52184
Ar 3.13703 0.370467 1.46272
Ar 1.8106 -1.02035 1.66258
Ar -0.812349 3.52699 2.17782
Ar -0.803434 2.76105 0.492194
Ar 0.7566 -0.934826 -0.86192
Ar 1.997 0.505512 3.60131
Ar 1.4044 2.45331 0.259502
Ar 1.87725 1.84068 1.68531
Ar 2.66639 1.97279 -0.387145
Ar -0.214655 1.22251 -0.06602
15

Ar 1.74996 2.0106 2.60124
Ar 0.7619 -0.0669814 -1.81534
Ar -0.495912 0.627104 2.97332
Ar -0.125404 3.07021 1.10995
Ar 0.151122 1.20677 1.49242
Ar 3.1295 0.346643 1.47627
Ar 1.82159 -1.02617 1.68528
Ar -0.818331 3.55035 2.18085
Ar -0.796948 2.76363 0.502267
Ar 0.775407 -0.953967 -0.86543
Ar 1.9974 0.514329 3.63293
Ar 1.40345 2.44608 0.261068
Ar 1.87936 1.8668 1.67327
Ar 2.66377 1.93526 -0.390146
Ar -0.235081 1.23559 -0.0823983
15

Ar 1.75521 2.0195 2.61147
Ar 0.766212 -0.0552303 -1.82474
Ar -0.501004 0.640157 2.97792
Ar -0.124171 3.06306 1.08791
Ar 0.144981 1.2003 1.46298
Ar 3.12177 0.323259 1.48937
Ar 1.83257 -1.03143 1.70787
Ar -0.824383 3.57319 2.18437
Ar -0.791218 2.76593 0.511644
Ar 0.794122 -0.973149 -0.868843
Ar 1.99773 0.523076 3.66459
Ar 1.40245 2.43885 0.262666
Ar 1.88167 1.89222 1.66001
Ar 2.66112 1.89775 -0.393196
Ar -0.255278 1.24877 -0.0984884
15

Ar 1.76025 2.02839 2.62276
Ar 0.770608 -0.0433525 -1.83421
Ar -0.506123 0.653079 2.98231
Ar -0.121863 3.05627 1.06663
Ar 0.138938 1.19394 1.43355
Ar 3.11383 0.300432 1.50192
Ar 1.84354 -1.03604 1.73035
Ar -0.830479 3.59541 2.18848
Ar -0.786425 2.76787 0.520194
Ar 0.812735 -0.992349 -0.872174
Ar 1.99798 0.531743 3.6963
Ar 1.4014 2.43161 0.264299
Ar 1.88416 1.91689 1.64567
Ar 2.65843 1.8603 -0.396278
Ar -0.275205 1.26205 -0.114249
15

Ar 1.76512 2.0372 2.63495
Ar 0.775086 -0.0313601 -1.84373
Ar -0.511265 0.665839 2.98647
Ar -0.1183 3.04992 1.04623
Ar 0.132987 1.18769 1.40411
Ar 3.10566 0.278303 1.51374
Ar 1.8545 -1.03989 1.75275
Ar -0.836594 3.61686 2.19332
Ar -0.782767 2.76938 0.527788
Ar 0.831235 -1.01154 -0.875438
Ar 1.99814 0.540317 3.72804
Ar 1.40031 2.42437 0.265971
Ar 1.88681 1.94075 1.63036
Ar 2.65567 1.82295 -0.399382
Ar -0.294816 1.27545 -0.129636
15

Ar 1.76982 2.0459 2.64792
Ar 0.779643 -0.0192635 -1.85329
Ar -0.516426 0.6784 2.99034
Ar -0.113296 3.0441 1.02682
Ar 0.127121 1.18155 1.37466
Ar 3.09727 0.25703 1.52466
Ar 1.86544 -1.04288 1.77509
Ar -0.842698 3.63739 2.19908
Ar -0.780444 2.77037 0.534316
Ar 0.849608 -1.03071 -0.878647
Ar 1.9982 0.548782 3.75983
Ar 1.39919 2.41713 0.267684
Ar 1.8896 1.96373 1.61419
Ar 2.65279 1.78573 -0.402499
Ar -0.314057 1.28899 -0.144601
15

Ar 1.7744 2.05445 2.66154
Ar 0.784278 -0.00707241 -1.86288
Ar -0.521601 0.690721 2.99388
Ar -0.106673 3.03885 1.0085
Ar 0.121335 1.17551 1.34521
Ar 3.08863 0.236786 1.53444
Ar 1.87638 -1.04491 1.7974
Ar -0.848757 3.65682 2.20598
Ar -0.779641 2.77079 0.539691
Ar 0.867838 -1.04983 -0.881809
Ar 1.99815 0.557124 3.79166
Ar 1.39803 2.40989 0.269441
Ar 1.8925 1.98575 1.59723
Ar 2.64976 1.74869 -0.405629
Ar -0.332866 1.30268 -0.159091
15

Ar 1.77886 2.0628 2.67571
Ar 0.788988 0.0052051 -1.8725
Ar -0.526782 0.702761 2.99704
Ar -0.0982906 3.03424 0.9913
Ar 0.115624 1.16955 1.31575
Ar 3.07973 0.217748 1.54281
Ar 1.88731 -1.04589 1.81972
Ar -0.854736 3.67498 2.21429
Ar -0.780515 2.77058 0.543866
Ar 0.885909 -1.06887 -0.884931
Ar 1.99799 0.565322 3.82353
Ar 1.39684 2.40266 0.271241
Ar 1.89551 2.00674 1.57955
Ar 2.6465 1.71187 -0.408784
Ar -0.351164 1.31655 -0.173054
15

Ar 1.78324 2.07094 2.69033
Ar 0.793772 0.0175678 -1.88213
Ar -0.531959 0.714473 2.99977
Ar -0.0880548 3.03029 0.975243
Ar 0.109981 1.16367 1.28629
Ar 3.07053 0.200074 1.54949
Ar 1.89824 -1.04575 1.84211
Ar -0.860592 3.69171 2.22428
Ar -0.783171 2.76972 0.546838
Ar 0.903798 -1.08781 -0.888016
Ar 1.9977 0.573356 3.85546
Ar 1.39562 2.39543 0.273086
Ar 1.89861 2.02665 1.56121
Ar 2.64294 1.67532 -0.411982
Ar -0.368865 1.33061 -0.18643
15

Ar 1.78756 2.07883 2.70532
Ar 0.798627 0.0300124 -1.89178
Ar -0.53712 0.725812 3.00202
Ar -0.0759306 3.027 0.960286
Ar 0.104403 1.15787 1.25683
Ar 3.06101 0.183887 1.55422
Ar 1.90918 -1.04444 1.86461
Ar -0.866285 3.70688 2.23621
Ar -0.78765 2.76822 0.548649
Ar 0.921482 -1.10663 -0.891065
Ar 1.99725 0.581206 3.88745
Ar 1.39437 2.3882 0.274972
Ar 1.90177 2.04544 1.54223
Ar 2.63897 1.63907 -0.415241
Ar -0.385865 1.34489 -0.199164
15

Ar 1.79185 2.08644 2.7206
Ar 0.803551 0.0425334 -1.90142
Ar -0.542248 0.73673 3.00374
Ar -0.0619514 3.02435 0.946347
Ar 0.0988857 1.15212 1.22737
Ar 3.05115 0.169246 1.55675
Ar 1.92014 -1.04194 1.88728
Ar -0.871775 3.72042 2.25033
Ar -0.793923 2.7661 0.549383
Ar 0.938932 -1.12529 -0.894076
Ar 1.99665 0.588846 3.9195
Ar 1.39308 2.38098 0.276899
Ar 1.905 2.0631 1.52263
Ar 2.63449 1.60317 -0.418578
Ar -0.402052 1.35943 -0.211198
15

Ar 1.79614 2.09375 2.73612
Ar 0.808543 0.055126 -1.91107
Ar -0.547323 0.747182 3.00487
Ar -0.0462131 3.02229 0.933317
Ar 0.0934253 1.14643 1.19792
Ar 3.04092 0.156134 1.55695
Ar 1.93114 -1.03829 1.91014
Ar -0.877031 3.73237 2.26675
Ar -0.8019 2.76342 0.549153
Ar 0.956115 -1.14377 -0.897046
Ar 1.99587 0.596253 3.95165
Ar 1.39175 2.37377 0.278863
Ar 1.90827 2.07966 1.50243
Ar 2.62938 1.56765 -0.422017
Ar -0.417307 1.37427 -0.222482
15

Ar 1.80047 2.10071 2.75182
Ar 0.8136 0.0677861 -1.92071
Ar -0.552322 0.757126 3.0054
Ar -0.02886 3.02076 0.92107
Ar 0.0880194 1.14079 1.16847
Ar 3.03033 0.144459 1.55478
Ar 1.94216 -1.03353 1.93322
Ar -0.882034 3.74279 2.28551
Ar -0.811441 2.76025 0.548087
Ar 0.972991 -1.16203 -0.899968
Ar 1.99488 0.603402 3.98389
Ar 1.39039 2.36657 0.280857
Ar 1.91159 2.09519 1.48168
Ar 2.62351 1.53253 -0.425582
Ar -0.431507 1.38945 -0.232969
15

Ar 1.80488 2.1073 2.76764
Ar 0.818721 0.0805102 -1.93035
Ar -0.557216 0.766525 3.00527
Ar -0.010067 3.01969 0.90948
Ar 0.0826655 1.1352 1.13904
Ar 3.01937 0.134068 1.55033
Ar 1.95324 -1.02773 1.95652
Ar -0.886779 3.75184 2.30651
Ar -0.822374 2.75665 0.546315
Ar 0.989516 -1.18004 -0.902833
Ar 1.99368 0.610269 0.0162597
Ar 1.38897 2.35938 0.282877
Ar 1.91493 2.10976 1.46041
Ar 2.61677 1.4978 -0.429298
Ar -0.44454 1.40504 -0.242625
15

Ar 1.80942 2.11347 2.78354
Ar 0.823902 0.0932954 -1.93997
Ar -0.561973 0.775348 3.00446
Ar 0.00997767 3.01902 0.898428
Ar 0.0773622 1.12963 1.10962
Ar 3.00808 0.124772 1.54378
Ar 1.96436 -1.02099 1.98004
Ar -0.891273 3.7597 2.32958
Ar -0.834515 2.75271 0.54396
Ar 1.00564 -1.19775 -0.905628
Ar 1.99223 0.61683 0.048775
Ar 1.38751 2.35219 0.284913
Ar 1.91831 2.12345 1.43867
Ar 2.60906 1.46346 -0.433191
Ar -0.456315 1.42111 -0.251428
15

Ar 1.81416 2.11918 2.79948
Ar 0.829142 0.106139 -1.94958
Ar -0.566561 0.783576 3.00296
Ar 0.0310867 3.01869 0.887808
Ar 0.0721081 1.12409 1.08023
Ar 2.99648 0.116382 1.53537
Ar 1.97553 -1.01341 2.00374
Ar -0.895534 3.76656 2.35447
Ar -0.847684 2.74849 0.54113
Ar 1.02129 -1.21512 -0.908342
Ar 1.99053 0.623065 0.0814617
Ar 1.38599 2.34502 0.286955
Ar 1.92171 2.13638 1.41653
Ar 2.60029 1.42947 -0.437279
Ar -0.466772 1.43773 -0.259372
