ITEM: TIMESTEP 
0
ITEM: NUMBER OF ATOMS 
5
ITEM: BOX BOUNDS pp pp pp 
-1.5 1.5
-1.5 1.5
-1.5 1.5
ITEM: ATOMS id type x y z 
1 1 1 -1 0.3
2 1 0.15 0.25 1
3 1 0.05 0.15 0.25
4 1 1 1 1
5 1 -1 -1 -1
ITEM: TIMESTEP 
1000
ITEM: NUMBER OF ATOMS 
5
ITEM: BOX BOUNDS pp pp pp 
-1.5 1.5
-1.5 1.5
-1.5 1.5
ITEM: ATOMS id type x y z 
1 1 1 -1 0.3
2 1 0.14996 0.24996 0.9997
3 1 0.05004 0.15004 0.2503
4 1 1 1 1
5 1 -1 -1 -1
ITEM: TIMESTEP 
2000
ITEM: NUMBER OF ATOMS 
5
ITEM: BOX BOUNDS pp pp pp 
-1.5 1.5
-1.5 1.5
-1.5 1.5
ITEM: ATOMS id type x y z 
1 1 1 -1 0.3
2 1 0.14992 0.24992 0.999399
3 1 0.0500801 0.15008 0.250601
4 1 1 1 1
5 1 -1 -1 -1
ITEM: TIMESTEP 
3000
ITEM: NUMBER OF ATOMS 
5
ITEM: BOX BOUNDS pp pp pp 
-1.5 1.5
-1.5 1.5
-1.5 1.5
ITEM: ATOMS id type x y z 
1 1 1 -1 0.3
2 1 0.14988 0.24988 0.999096
3 1 0.0501205 0.15012 0.250904
4 1 1 1 1
5 1 -1 -1 -1
ITEM: TIMESTEP 
4000
ITEM: NUMBER OF ATOMS 
5
ITEM: BOX BOUNDS pp pp pp 
-1.5 1.5
-1.5 1.5
-1.5 1.5
ITEM: ATOMS id type x y z 
1 1 1 -1 0.3
2 1 0.149839 0.249839 0.998792
3 1 0.0501611 0.150161 0.251208
4 1 1 1 1
5 1 -1 -1 -1
ITEM: TIMESTEP 
5000
ITEM: NUMBER OF ATOMS 
5
ITEM: BOX BOUNDS pp pp pp 
-1.5 1.5
-1.5 1.5
-1.5 1.5
ITEM: ATOMS id type x y z 
1 1 1 -1 0.3
2 1 0.149798 0.249798 0.998486
3 1 0.0502019 0.150202 0.251514
4 1 1 1 1
5 1 -1 -1 -1
ITEM: TIMESTEP 
6000
ITEM: NUMBER OF ATOMS 
5
ITEM: BOX BOUNDS pp pp pp 
-1.5 1.5
-1.5 1.5
-1.5 1.5
ITEM: ATOMS id type x y z 
1 1 1 -1 0.3
2 1 0.149757 0.249757 0.998178
3 1 0.0502429 0.150243 0.251822
4 1 1 1 1
5 1 -1 -1 -1
ITEM: TIMESTEP 
7000
ITEM: NUMBER OF ATOMS 
5
ITEM: BOX BOUNDS pp pp pp 
-1.5 1.5
-1.5 1.5
-1.5 1.5
ITEM: ATOMS id type x y z 
1 1 1 -1 0.3
2 1 0.149716 0.249716 0.997868
3 1 0.0502842 0.150284 0.252132
4 1 1 1 1
5 1 -1 -1 -1
ITEM: TIMESTEP 
8000
ITEM: NUMBER OF ATOMS 
5
ITEM: BOX BOUNDS pp pp pp 
-1.5 1.5
-1.5 1.5
-1.5 1.5
ITEM: ATOMS id type x y z 
1 1 1 -1 0.3
2 1 0.149674 0.249674 0.997557
3 1 0.0503258 0.150326 0.252443
4 1 1 1 1
5 1 -1 -1 -1
ITEM: TIMESTEP 
9000
ITEM: NUMBER OF ATOMS 
5
ITEM: BOX BOUNDS pp pp pp 
-1.5 1.5
-1.5 1.5
-1.5 1.5
ITEM: ATOMS id type x y z 
1 1 1 -1 0.3
2 1 0.149632 0.249632 0.997244
3 1 0.0503675 0.150368 0.252756
4 1 1 1 1
5 1 -1 -1 -1
ITEM: TIMESTEP 
10000
ITEM: NUMBER OF ATOMS 
5
ITEM: BOX BOUNDS pp pp pp 
-1.5 1.5
-1.5 1.5
-1.5 1.5
ITEM: ATOMS id type x y z 
1 1 1 -1 0.3
2 1 0.14959 0.24959 0.996928
3 1 0.0504095 0.15041 0.253072
4 1 1 1 1
5 1 -1 -1 -1
ITEM: TIMESTEP 
11000
ITEM: NUMBER OF ATOMS 
5
ITEM: BOX BOUNDS pp pp pp 
-1.5 1.5
-1.5 1.5
-1.5 1.5
ITEM: ATOMS id type x y z 
1 1 1 -1 0.3
2 1 0.149548 0.249548 0.996612
3 1 0.0504518 0.150452 0.253388
4 1 1 1 1
5 1 -1 -1 -1
ITEM: TIMESTEP 
12000
ITEM: NUMBER OF ATOMS 
5
ITEM: BOX BOUNDS pp pp pp 
-1.5 1.5
-1.5 1.5
-1.5 1.5
ITEM: ATOMS id type x y z 
1 1 1 -1 0.3
2 1 0.149506 0.249506 0.996293
3 1 0.0504943 0.150494 0.253707
4 1 1 1 1
5 1 -1 -1 -1
ITEM: TIMESTEP 
13000
ITEM: NUMBER OF ATOMS 
5
ITEM: BOX BOUNDS pp pp pp 
-1.5 1.5
-1.5 1.5
-1.5 1.5
ITEM: ATOMS id type x y z 
1 1 1 -1 0.3
2 1 0.149463 0.249463 0.995972
3 1 0.0505371 0.150537 0.254028
4 1 1 1 1
5 1 -1 -1 -1
ITEM: TIMESTEP 
14000
ITEM: NUMBER OF ATOMS 
5
ITEM: BOX BOUNDS pp pp pp 
-1.5 1.5
-1.5 1.5
-1.5 1.5
ITEM: ATOMS id type x y z 
1 1 1 -1 0.3
2 1 0.14942 0.24942 0.995649
3 1 0.0505801 0.15058 0.254351
4 1 1 1 1
5 1 -1 -1 -1
ITEM: TIMESTEP 
15000
ITEM: NUMBER OF ATOMS 
5
ITEM: BOX BOUNDS pp pp pp 
-1.5 1.5
-1.5 1.5
-1.5 1.5
ITEM: ATOMS id type x y z 
1 1 1 -1 0.3
2 1 0.149377 0.249377 0.995325
3 1 0.0506234 0.150623 0.254675
4 1 1 1 1
5 1 -1 -1 -1
ITEM: TIMESTEP 
16000
ITEM: NUMBER OF ATOMS 
5
ITEM: BOX BOUNDS pp pp pp 
-1.5 1.5
-1.5 1.5
-1.5 1.5
ITEM: ATOMS id type x y z 
1 1 1 -1 0.3
2 1 0.149333 0.249333 0.994998
3 1 0.0506669 0.150667 0.255002
4 1 1 1 1
5 1 -1 -1 -1
ITEM: TIMESTEP 
17000
ITEM: NUMBER OF ATOMS 
5
ITEM: BOX BOUNDS pp pp pp 
-1.5 1.5
-1.5 1.5
-1.5 1.5
ITEM: ATOMS id type x y z 
1 1 1 -1 0.3
2 1 0.149289 0.249289 0.99467
3 1 0.0507107 0.150711 0.25533
4 1 1 1 1
5 1 -1 -1 -1
ITEM: TIMESTEP 
18000
ITEM: NUMBER OF ATOMS 
5
ITEM: BOX BOUNDS pp pp pp 
-1.5 1.5
-1.5 1.5
-1.5 1.5
ITEM: ATOMS id type x y z 
1 1 1 -1 0.3
2 1 0.149245 0.249245 0.994339
3 1 0.0507548 0.150755 0.255661
4 1 1 1 1
5 1 -1 -1 -1
ITEM: TIMESTEP 
19000
ITEM: NUMBER OF ATOMS 
5
ITEM: BOX BOUNDS pp pp pp 
-1.5 1.5
-1.5 1.5
-1.5 1.5
ITEM: ATOMS id type x y z 
1 1 1 -1 0.3
2 1 0.149201 0.249201 0.994006
3 1 0.0507991 0.150799 0.255994
4 1 1 1 1
5 1 -1 -1 -1
ITEM: TIMESTEP 
20000
ITEM: NUMBER OF ATOMS 
5
ITEM: BOX BOUNDS pp pp pp 
-1.5 1.5
-1.5 1.5
-1.5 1.5
ITEM: ATOMS id type x y z 
1 1 1 -1 0.3
2 1 0.149156 0.249156 0.993672
3 1 0.0508438 0.150844 0.256328
4 1 1 1 1
5 1 -1 -1 -1
ITEM: TIMESTEP 
21000
ITEM: NUMBER OF ATOMS 
5
ITEM: BOX BOUNDS pp pp pp 
-1.5 1.5
-1.5 1.5
-1.5 1.5
ITEM: ATOMS id type x y z 
1 1 1 -1 0.3
2 1 0.149111 0.249111 0.993335
3 1 0.0508887 0.150889 0.256665
4 1 1 1 1
5 1 -1 -1 -1
ITEM: TIMESTEP 
22000
ITEM: NUMBER OF ATOMS 
5
ITEM: BOX BOUNDS pp pp pp 
-1.5 1.5
-1.5 1.5
-1.5 1.5
ITEM: ATOMS id type x y z 
1 1 1 -1 0.3
2 1 0.149066 0.249066 0.992996
3 1 0.0509339 0.150934 0.257004
4 1 1 1 1
5 1 -1 -1 -1
ITEM: TIMESTEP 
23000
ITEM: NUMBER OF ATOMS 
5
ITEM: BOX BOUNDS pp pp pp 
-1.5 1.5
-1.5 1.5
-1.5 1.5
ITEM: ATOMS id type x y z 
1 1 1 -1 0.3
2 1 0.149021 0.249021 0.992655
3 1 0.0509794 0.150979 0.257345
4 1 1 1 1
5 1 -1 -1 -1
ITEM: TIMESTEP 
24000
ITEM: NUMBER OF ATOMS 
5
ITEM: BOX BOUNDS pp pp pp 
-1.5 1.5
-1.5 1.5
-1.5 1.5
ITEM: ATOMS id type x y z 
1 1 1 -1 0.3
2 1 0.148975 0.248975 0.992311
3 1 0.0510251 0.151025 0.257689
4 1 1 1 1
5 1 -1 -1 -1
ITEM: TIMESTEP 
25000
ITEM: NUMBER OF ATOMS 
5
ITEM: BOX BOUNDS pp pp pp 
-1.5 1.5
-1.5 1.5
-1.5 1.5
ITEM: ATOMS id type x y z 
1 1 1 -1 0.3
2 1 0.148929 0.248929 0.991966
3 1 0.0510712 0.151071 0.258034
4 1 1 1 1
5 1 -1 -1 -1
ITEM: TIMESTEP 
26000
ITEM: NUMBER OF ATOMS 
5
ITEM: BOX BOUNDS pp pp pp 
-1.5 1.5
-1.5 1.5
-1.5 1.5
ITEM: ATOMS id type x y z 
1 1 1 -1 0.3
2 1 0.148882 0.248882 0.991618
3 1 0.0511176 0.151118 0.258382
4 1 1 1 1
5 1 -1 -1 -1
ITEM: TIMESTEP 
27000
ITEM: NUMBER OF ATOMS 
5
ITEM: BOX BOUNDS pp pp pp 
-1.5 1.5
-1.5 1.5
-1.5 1.5
ITEM: ATOMS id type x y z 
1 1 1 -1 0.3
2 1 0.148836 0.248836 0.991268
3 1 0.0511643 0.151164 0.258732
4 1 1 1 1
5 1 -1 -1 -1
ITEM: TIMESTEP 
28000
ITEM: NUMBER OF ATOMS 
5
ITEM: BOX BOUNDS pp pp pp 
-1.5 1.5
-1.5 1.5
-1.5 1.5
ITEM: ATOMS id type x y z 
1 1 1 -1 0.3
2 1 0.148789 0.248789 0.990916
3 1 0.0512113 0.151211 0.259084
4 1 1 1 1
5 1 -1 -1 -1
ITEM: TIMESTEP 
29000
ITEM: NUMBER OF ATOMS 
5
ITEM: BOX BOUNDS pp pp pp 
-1.5 1.5
-1.5 1.5
-1.5 1.5
ITEM: ATOMS id type x y z 
1 1 1 -1 0.3
2 1 0.148741 0.248741 0.990561
3 1 0.0512586 0.151259 0.259439
4 1 1 1 1
5 1 -1 -1 -1
ITEM: TIMESTEP 
30000
ITEM: NUMBER OF ATOMS 
5
ITEM: BOX BOUNDS pp pp pp 
-1.5 1.5
-1.5 1.5
-1.5 1.5
ITEM: ATOMS id type x y z 
1 1 1 -1 0.3
2 1 0.148694 0.248694 0.990204
3 1 0.0513062 0.151306 0.259796
4 1 1 1 1
5 1 -1 -1 -1
ITEM: TIMESTEP 
31000
ITEM: NUMBER OF ATOMS 
5
ITEM: BOX BOUNDS pp pp pp 
-1.5 1.5
-1.5 1.5
-1.5 1.5
ITEM: ATOMS id type x y z 
1 1 1 -1 0.3
2 1 0.148646 0.248646 0.989844
3 1 0.0513541 0.151354 0.260156
4 1 1 1 1
5 1 -1 -1 -1
ITEM: TIMESTEP 
32000
ITEM: NUMBER OF ATOMS 
5
ITEM: BOX BOUNDS pp pp pp 
-1.5 1.5
-1.5 1.5
-1.5 1.5
ITEM: ATOMS id type x y z 
1 1 1 -1 0.3
2 1 0.148598 0.248598 0.989482
3 1 0.0514024 0.151402 0.260518
4 1 1 1 1
5 1 -1 -1 -1
ITEM: TIMESTEP 
33000
ITEM: NUMBER OF ATOMS 
5
ITEM: BOX BOUNDS pp pp pp 
-1.5 1.5
-1.5 1.5
-1.5 1.5
ITEM: ATOMS id type x y z 
1 1 1 -1 0.3
2 1 0.148549 0.248549 0.989117
3 1 0.051451 0.151451 0.260883
4 1 1 1 1
5 1 -1 -1 -1
ITEM: TIMESTEP 
34000
ITEM: NUMBER OF ATOMS 
5
ITEM: BOX BOUNDS pp pp pp 
-1.5 1.5
-1.5 1.5
-1.5 1.5
ITEM: ATOMS id type x y z 
1 1 1 -1 0.3
2 1 0.1485 0.2485 0.98875
3 1 0.0515 0.1515 0.26125
4 1 1 1 1
5 1 -1 -1 -1
ITEM: TIMESTEP 
35000
ITEM: NUMBER OF ATOMS 
5
ITEM: BOX BOUNDS pp pp pp 
-1.5 1.5
-1.5 1.5
-1.5 1.5
ITEM: ATOMS id type x y z 
1 1 1 -1 0.3
2 1 0.148451 0.248451 0.988381
3 1 0.0515492 0.151549 0.261619
4 1 1 1 1
5 1 -1 -1 -1
ITEM: TIMESTEP 
36000
ITEM: NUMBER OF ATOMS 
5
ITEM: BOX BOUNDS pp pp pp 
-1.5 1.5
-1.5 1.5
-1.5 1.5
ITEM: ATOMS id type x y z 
1 1 1 -1 0.3
2 1 0.148401 0.248401 0.988008
3 1 0.0515989 0.151599 0.261992
4 1 1 1 1
5 1 -1 -1 -1
ITEM: TIMESTEP 
37000
ITEM: NUMBER OF ATOMS 
5
ITEM: BOX BOUNDS pp pp pp 
-1.5 1.5
-1.5 1.5
-1.5 1.5
ITEM: ATOMS id type x y z 
1 1 1 -1 0.3
2 1 0.148351 0.248351 0.987634
3 1 0.0516489 0.151649 0.262366
4 1 1 1 1
5 1 -1 -1 -1
ITEM: TIMESTEP 
38000
ITEM: NUMBER OF ATOMS 
5
ITEM: BOX BOUNDS pp pp pp 
-1.5 1.5
-1.5 1.5
-1.5 1.5
ITEM: ATOMS id type x y z 
1 1 1 -1 0.3
2 1 0.148301 0.248301 0.987256
3 1 0.0516992 0.151699 0.262744
4 1 1 1 1
5 1 -1 -1 -1
ITEM: TIMESTEP 
39000
ITEM: NUMBER OF ATOMS 
5
ITEM: BOX BOUNDS pp pp pp 
-1.5 1.5
-1.5 1.5
-1.5 1.5
ITEM: ATOMS id type x y z 
1 1 1 -1 0.3
2 1 0.14825 0.24825 0.986876
3 1 0.0517499 0.15175 0.263124
4 1 1 1 1
5 1 -1 -1 -1
ITEM: TIMESTEP 
40000
ITEM: NUMBER OF ATOMS 
5
ITEM: BOX BOUNDS pp pp pp 
-1.5 1.5
-1.5 1.5
-1.5 1.5
ITEM: ATOMS id type x y z 
1 1 1 -1 0.3
2 1 0.148199 0.248199 0.986493
3 1 0.051801 0.151801 0.263507
4 1 1 1 1
5 1 -1 -1 -1
ITEM: TIMESTEP 
41000
ITEM: NUMBER OF ATOMS 
5
ITEM: BOX BOUNDS pp pp pp 
-1.5 1.5
-1.5 1.5
-1.5 1.5
ITEM: ATOMS id type x y z 
1 1 1 -1 0.3
2 1 0.148148 0.248148 0.986107
3 1 0.0518524 0.151852 0.263893
4 1 1 1 1
5 1 -1 -1 -1
ITEM: TIMESTEP 
42000
ITEM: NUMBER OF ATOMS 
5
ITEM: BOX BOUNDS pp pp pp 
-1.5 1.5
-1.5 1.5
-1.5 1.5
ITEM: ATOMS id type x y z 
1 1 1 -1 0.3
2 1 0.148096 0.248096 0.985718
3 1 0.0519043 0.151904 0.264282
4 1 1 1 1
5 1 -1 -1 -1
ITEM: TIMESTEP 
43000
ITEM: NUMBER OF ATOMS 
5
ITEM: BOX BOUNDS pp pp pp 
-1.5 1.5
-1.5 1.5
-1.5 1.5
ITEM: ATOMS id type x y z 
1 1 1 -1 0.3
2 1 0.148044 0.248044 0.985326
3 1 0.0519565 0.151956 0.264674
4 1 1 1 1
5 1 -1 -1 -1
ITEM: TIMESTEP 
44000
ITEM: NUMBER OF ATOMS 
5
ITEM: BOX BOUNDS pp pp pp 
-1.5 1.5
-1.5 1.5
-1.5 1.5
ITEM: ATOMS id type x y z 
1 1 1 -1 0.3
2 1 0.147991 0.247991 0.984932
3 1 0.0520091 0.152009 0.265068
4 1 1 1 1
5 1 -1 -1 -1
ITEM: TIMESTEP 
45000
ITEM: NUMBER OF ATOMS 
5
ITEM: BOX BOUNDS pp pp pp 
-1.5 1.5
-1.5 1.5
-1.5 1.5
ITEM: ATOMS id type x y z 
1 1 1 -1 0.3
2 1 0.147938 0.247938 0.984534
3 1 0.0520621 0.152062 0.265466
4 1 1 1 1
5 1 -1 -1 -1
ITEM: TIMESTEP 
46000
ITEM: NUMBER OF ATOMS 
5
ITEM: BOX BOUNDS pp pp pp 
-1.5 1.5
-1.5 1.5
-1.5 1.5
ITEM: ATOMS id type x y z 
1 1 1 -1 0.3
2 1 0.147884 0.247884 0.984134
3 1 0.0521155 0.152116 0.265866
4 1 1 1 1
5 1 -1 -1 -1
ITEM: TIMESTEP 
47000
ITEM: NUMBER OF ATOMS 
5
ITEM: BOX BOUNDS pp pp pp 
-1.5 1.5
-1.5 1.5
-1.5 1.5
ITEM: ATOMS id type x y z 
1 1 1 -1 0.3
2 1 0.147831 0.247831 0.98373
3 1 0.0521694 0.152169 0.26627
4 1 1 1 1
5 1 -1 -1 -1
ITEM: TIMESTEP 
48000
ITEM: NUMBER OF ATOMS 
5
ITEM: BOX BOUNDS pp pp pp 
-1.5 1.5
-1.5 1.5
-1.5 1.5
ITEM: ATOMS id type x y z 
1 1 1 -1 0.3
2 1 0.147776 0.247776 0.983323
3 1 0.0522236 0.152224 0.266677
4 1 1 1 1
5 1 -1 -1 -1
ITEM: TIMESTEP 
49000
ITEM: NUMBER OF ATOMS 
5
ITEM: BOX BOUNDS pp pp pp 
-1.5 1.5
-1.5 1.5
-1.5 1.5
ITEM: ATOMS id type x y z 
1 1 1 -1 0.3
2 1 0.147722 0.247722 0.982913
3 1 0.0522783 0.152278 0.267087
4 1 1 1 1
5 1 -1 -1 -1
ITEM: TIMESTEP 
50000
ITEM: NUMBER OF ATOMS 
5
ITEM: BOX BOUNDS pp pp pp 
-1.5 1.5
-1.5 1.5
-1.5 1.5
ITEM: ATOMS id type x y z 
1 1 1 -1 0.3
2 1 0.147667 0.247667 0.9825
3 1 0.0523334 0.152333 0.2675
4 1 1 1 1
5 1 -1 -1 -1
ITEM: TIMESTEP 
51000
ITEM: NUMBER OF ATOMS 
5
ITEM: BOX BOUNDS pp pp pp 
-1.5 1.5
-1.5 1.5
-1.5 1.5
ITEM: ATOMS id type x y z 
1 1 1 -1 0.3
2 1 0.147611 0.247611 0.982083
3 1 0.0523889 0.152389 0.267917
4 1 1 1 1
5 1 -1 -1 -1
ITEM: TIMESTEP 
52000
ITEM: NUMBER OF ATOMS 
5
ITEM: BOX BOUNDS pp pp pp 
-1.5 1.5
-1.5 1.5
-1.5 1.5
ITEM: ATOMS id type x y z 
1 1 1 -1 0.3
2 1 0.147555 0.247555 0.981663
3 1 0.052445 0.152445 0.268337
4 1 1 1 1
5 1 -1 -1 -1
ITEM: TIMESTEP 
53000
ITEM: NUMBER OF ATOMS 
5
ITEM: BOX BOUNDS pp pp pp 
-1.5 1.5
-1.5 1.5
-1.5 1.5
ITEM: ATOMS id type x y z 
1 1 1 -1 0.3
2 1 0.147499 0.247499 0.981239
3 1 0.0525014 0.152501 0.268761
4 1 1 1 1
5 1 -1 -1 -1
ITEM: TIMESTEP 
54000
ITEM: NUMBER OF ATOMS 
5
ITEM: BOX BOUNDS pp pp pp 
-1.5 1.5
-1.5 1.5
-1.5 1.5
ITEM: ATOMS id type x y z 
1 1 1 -1 0.3
2 1 0.147442 0.247442 0.980813
3 1 0.0525583 0.152558 0.269187
4 1 1 1 1
5 1 -1 -1 -1
ITEM: TIMESTEP 
55000
ITEM: NUMBER OF ATOMS 
5
ITEM: BOX BOUNDS pp pp pp 
-1.5 1.5
-1.5 1.5
-1.5 1.5
ITEM: ATOMS id type x y z 
1 1 1 -1 0.3
2 1 0.147384 0.247384 0.980382
3 1 0.0526157 0.152616 0.269618
4 1 1 1 1
5 1 -1 -1 -1
ITEM: TIMESTEP 
56000
ITEM: NUMBER OF ATOMS 
5
ITEM: BOX BOUNDS pp pp pp 
-1.5 1.5
-1.5 1.5
-1.5 1.5
ITEM: ATOMS id type x y z 
1 1 1 -1 0.3
2 1 0.147326 0.247326 0.979948
3 1 0.0526736 0.152674 0.270052
4 1 1 1 1
5 1 -1 -1 -1
ITEM: TIMESTEP 
57000
ITEM: NUMBER OF ATOMS 
5
ITEM: BOX BOUNDS pp pp pp 
-1.5 1.5
-1.5 1.5
-1.5 1.5
ITEM: ATOMS id type x y z 
1 1 1 -1 0.3
2 1 0.147268 0.247268 0.97951
3 1 0.052732 0.152732 0.27049
4 1 1 1 1
5 1 -1 -1 -1
ITEM: TIMESTEP 
58000
ITEM: NUMBER OF ATOMS 
5
ITEM: BOX BOUNDS pp pp pp 
-1.5 1.5
-1.5 1.5
-1.5 1.5
ITEM: ATOMS id type x y z 
1 1 1 -1 0.3
2 1 0.147209 0.247209 0.979069
3 1 0.0527908 0.152791 0.270931
4 1 1 1 1
5 1 -1 -1 -1
ITEM: TIMESTEP 
59000
ITEM: NUMBER OF ATOMS 
5
ITEM: BOX BOUNDS pp pp pp 
-1.5 1.5
-1.5 1.5
-1.5 1.5
ITEM: ATOMS id type x y z 
1 1 1 -1 0.3
2 1 0.14715 0.24715 0.978623
3 1 0.0528502 0.15285 0.271377
4 1 1 1 1
5 1 -1 -1 -1
ITEM: TIMESTEP 
60000
ITEM: NUMBER OF ATOMS 
5
ITEM: BOX BOUNDS pp pp pp 
-1.5 1.5
-1.5 1.5
-1.5 1.5
ITEM: ATOMS id type x y z 
1 1 1 -1 0.3
2 1 0.14709 0.24709 0.978174
3 1 0.0529101 0.15291 0.271826
4 1 1 1 1
5 1 -1 -1 -1
ITEM: TIMESTEP 
61000
ITEM: NUMBER OF ATOMS 
5
ITEM: BOX BOUNDS pp pp pp 
-1.5 1.5
-1.5 1.5
-1.5 1.5
ITEM: ATOMS id type x y z 
1 1 1 -1 0.3
2 1 0.147029 0.247029 0.977721
3 1 0.0529705 0.152971 0.272279
4 1 1 1 1
5 1 -1 -1 -1
ITEM: TIMESTEP 
62000
ITEM: NUMBER OF ATOMS 
5
ITEM: BOX BOUNDS pp pp pp 
-1.5 1.5
-1.5 1.5
-1.5 1.5
ITEM: ATOMS id type x y z 
1 1 1 -1 0.3
2 1 0.146969 0.246969 0.977264
3 1 0.0530315 0.153031 0.272736
4 1 1 1 1
5 1 -1 -1 -1
ITEM: TIMESTEP 
63000
ITEM: NUMBER OF ATOMS 
5
ITEM: BOX BOUNDS pp pp pp 
-1.5 1.5
-1.5 1.5
-1.5 1.5
ITEM: ATOMS id type x y z 
1 1 1 -1 0.3
2 1 0.146907 0.246907 0.976803
3 1 0.053093 0.153093 0.273197
4 1 1 1 1
5 1 -1 -1 -1
ITEM: TIMESTEP 
64000
ITEM: NUMBER OF ATOMS 
5
ITEM: BOX BOUNDS pp pp pp 
-1.5 1.5
-1.5 1.5
-1.5 1.5
ITEM: ATOMS id type x y z 
1 1 1 -1 0.3
2 1 0.146845 0.246845 0.976337
3 1 0.053155 0.153155 0.273663
4 1 1 1 1
5 1 -1 -1 -1
ITEM: TIMESTEP 
65000
ITEM: NUMBER OF ATOMS 
5
ITEM: BOX BOUNDS pp pp pp 
-1.5 1.5
-1.5 1.5
-1.5 1.5
ITEM: ATOMS id type x y z 
1 1 1 -1 0.3
2 1 0.146782 0.246782 0.975867
3 1 0.0532177 0.153218 0.274133
4 1 1 1 1
5 1 -1 -1 -1
ITEM: TIMESTEP 
66000
ITEM: NUMBER OF ATOMS 
5
ITEM: BOX BOUNDS pp pp pp 
-1.5 1.5
-1.5 1.5
-1.5 1.5
ITEM: ATOMS id type x y z 
1 1 1 -1 0.3
2 1 0.146719 0.246719 0.975393
3 1 0.0532809 0.153281 0.274607
4 1 1 1 1
5 1 -1 -1 -1
ITEM: TIMESTEP 
67000
ITEM: NUMBER OF ATOMS 
5
ITEM: BOX BOUNDS pp pp pp 
-1.5 1.5
-1.5 1.5
-1.5 1.5
ITEM: ATOMS id type x y z 
1 1 1 -1 0.3
2 1 0.146655 0.246655 0.974915
3 1 0.0533447 0.153345 0.275085
4 1 1 1 1
5 1 -1 -1 -1
ITEM: TIMESTEP 
68000
ITEM: NUMBER OF ATOMS 
5
ITEM: BOX BOUNDS pp pp pp 
-1.5 1.5
-1.5 1.5
-1.5 1.5
ITEM: ATOMS id type x y z 
1 1 1 -1 0.3
2 1 0.146591 0.246591 0.974432
3 1 0.0534091 0.153409 0.275568
4 1 1 1 1
5 1 -1 -1 -1
ITEM: TIMESTEP 
69000
ITEM: NUMBER OF ATOMS 
5
ITEM: BOX BOUNDS pp pp pp 
-1.5 1.5
-1.5 1.5
-1.5 1.5
ITEM: ATOMS id type x y z 
1 1 1 -1 0.3
2 1 0.146526 0.246526 0.973944
3 1 0.0534741 0.153474 0.276056
4 1 1 1 1
5 1 -1 -1 -1
ITEM: TIMESTEP 
70000
ITEM: NUMBER OF ATOMS 
5
ITEM: BOX BOUNDS pp pp pp 
-1.5 1.5
-1.5 1.5
-1.5 1.5
ITEM: ATOMS id type x y z 
1 1 1 -1 0.3
2 1 0.14646 0.24646 0.973452
3 1 0.0535398 0.15354 0.276548
4 1 1 1 1
5 1 -1 -1 -1
ITEM: TIMESTEP 
71000
ITEM: NUMBER OF ATOMS 
5
ITEM: BOX BOUNDS pp pp pp 
-1.5 1.5
-1.5 1.5
-1.5 1.5
ITEM: ATOMS id type x y z 
1 1 1 -1 0.3
2 1 0.146394 0.246394 0.972954
3 1 0.0536061 0.153606 0.277046
4 1 1 1 1
5 1 -1 -1 -1
ITEM: TIMESTEP 
72000
ITEM: NUMBER OF ATOMS 
5
ITEM: BOX BOUNDS pp pp pp 
-1.5 1.5
-1.5 1.5
-1.5 1.5
ITEM: ATOMS id type x y z 
1 1 1 -1 0.3
2 1 0.146327 0.246327 0.972452
3 1 0.053673 0.153673 0.277548
4 1 1 1 1
5 1 -1 -1 -1
ITEM: TIMESTEP 
73000
ITEM: NUMBER OF ATOMS 
5
ITEM: BOX BOUNDS pp pp pp 
-1.5 1.5
-1.5 1.5
-1.5 1.5
ITEM: ATOMS id type x y z 
1 1 1 -1 0.3
2 1 0.146259 0.246259 0.971945
3 1 0.0537406 0.153741 0.278055
4 1 1 1 1
5 1 -1 -1 -1
ITEM: TIMESTEP 
74000
ITEM: NUMBER OF ATOMS 
5
ITEM: BOX BOUNDS pp pp pp 
-1.5 1.5
-1.5 1.5
-1.5 1.5
ITEM: ATOMS id type x y z 
1 1 1 -1 0.3
2 1 0.146191 0.246191 0.971433
3 1 0.0538089 0.153809 0.278567
4 1 1 1 1
5 1 -1 -1 -1
ITEM: TIMESTEP 
75000
ITEM: NUMBER OF ATOMS 
5
ITEM: BOX BOUNDS pp pp pp 
-1.5 1.5
-1.5 1.5
-1.5 1.5
ITEM: ATOMS id type x y z 
1 1 1 -1 0.3
2 1 0.146122 0.246122 0.970916
3 1 0.0538779 0.153878 0.279084
4 1 1 1 1
5 1 -1 -1 -1
ITEM: TIMESTEP 
76000
ITEM: NUMBER OF ATOMS 
5
ITEM: BOX BOUNDS pp pp pp 
-1.5 1.5
-1.5 1.5
-1.5 1.5
ITEM: ATOMS id type x y z 
1 1 1 -1 0.3
2 1 0.146052 0.246052 0.970393
3 1 0.0539476 0.153948 0.279607
4 1 1 1 1
5 1 -1 -1 -1
ITEM: TIMESTEP 
77000
ITEM: NUMBER OF ATOMS 
5
ITEM: BOX BOUNDS pp pp pp 
-1.5 1.5
-1.5 1.5
-1.5 1.5
ITEM: ATOMS id type x y z 
1 1 1 -1 0.3
2 1 0.145982 0.245982 0.969864
3 1 0.0540181 0.154018 0.280136
4 1 1 1 1
5 1 -1 -1 -1
ITEM: TIMESTEP 
78000
ITEM: NUMBER OF ATOMS 
5
ITEM: BOX BOUNDS pp pp pp 
-1.5 1.5
-1.5 1.5
-1.5 1.5
ITEM: ATOMS id type x y z 
1 1 1 -1 0.3
2 1 0.145911 0.245911 0.96933
3 1 0.0540893 0.154089 0.28067
4 1 1 1 1
5 1 -1 -1 -1
ITEM: TIMESTEP 
79000
ITEM: NUMBER OF ATOMS 
5
ITEM: BOX BOUNDS pp pp pp 
-1.5 1.5
-1.5 1.5
-1.5 1.5
ITEM: ATOMS id type x y z 
1 1 1 -1 0.3
2 1 0.145839 0.245839 0.968791
3 1 0.0541612 0.154161 0.281209
4 1 1 1 1
5 1 -1 -1 -1
ITEM: TIMESTEP 
80000
ITEM: NUMBER OF ATOMS 
5
ITEM: BOX BOUNDS pp pp pp 
-1.5 1.5
-1.5 1.5
-1.5 1.5
ITEM: ATOMS id type x y z 
1 1 1 -1 0.3
2 1 0.145766 0.245766 0.968245
3 1 0.054234 0.154234 0.281755
4 1 1 1 1
5 1 -1 -1 -1
ITEM: TIMESTEP 
81000
ITEM: NUMBER OF ATOMS 
5
ITEM: BOX BOUNDS pp pp pp 
-1.5 1.5
-1.5 1.5
-1.5 1.5
ITEM: ATOMS id type x y z 
1 1 1 -1 0.3
2 1 0.145693 0.245693 0.967694
3 1 0.0543075 0.154307 0.282306
4 1 1 1 1
5 1 -1 -1 -1
ITEM: TIMESTEP 
82000
ITEM: NUMBER OF ATOMS 
5
ITEM: BOX BOUNDS pp pp pp 
-1.5 1.5
-1.5 1.5
-1.5 1.5
ITEM: ATOMS id type x y z 
1 1 1 -1 0.3
2 1 0.145618 0.245618 0.967136
3 1 0.0543818 0.154382 0.282864
4 1 1 1 1
5 1 -1 -1 -1
ITEM: TIMESTEP 
83000
ITEM: NUMBER OF ATOMS 
5
ITEM: BOX BOUNDS pp pp pp 
-1.5 1.5
-1.5 1.5
-1.5 1.5
ITEM: ATOMS id type x y z 
1 1 1 -1 0.3
2 1 0.145543 0.245543 0.966572
3 1 0.054457 0.154457 0.283428
4 1 1 1 1
5 1 -1 -1 -1
ITEM: TIMESTEP 
84000
ITEM: NUMBER OF ATOMS 
5
ITEM: BOX BOUNDS pp pp pp 
-1.5 1.5
-1.5 1.5
-1.5 1.5
ITEM: ATOMS id type x y z 
1 1 1 -1 0.3
2 1 0.145467 0.245467 0.966002
3 1 0.0545331 0.154533 0.283998
4 1 1 1 1
5 1 -1 -1 -1
ITEM: TIMESTEP 
85000
ITEM: NUMBER OF ATOMS 
5
ITEM: BOX BOUNDS pp pp pp 
-1.5 1.5
-1.5 1.5
-1.5 1.5
ITEM: ATOMS id type x y z 
1 1 1 -1 0.3
2 1 0.14539 0.24539 0.965425
3 1 0.05461 0.15461 0.284575
4 1 1 1 1
5 1 -1 -1 -1
ITEM: TIMESTEP 
86000
ITEM: NUMBER OF ATOMS 
5
ITEM: BOX BOUNDS pp pp pp 
-1.5 1.5
-1.5 1.5
-1.5 1.5
ITEM: ATOMS id type x y z 
1 1 1 -1 0.3
2 1 0.145312 0.245312 0.964842
3 1 0.0546878 0.154688 0.285158
4 1 1 1 1
5 1 -1 -1 -1
ITEM: TIMESTEP 
87000
ITEM: NUMBER OF ATOMS 
5
ITEM: BOX BOUNDS pp pp pp 
-1.5 1.5
-1.5 1.5
-1.5 1.5
ITEM: ATOMS id type x y z 
1 1 1 -1 0.3
2 1 0.145233 0.245233 0.964251
3 1 0.0547665 0.154767 0.285749
4 1 1 1 1
5 1 -1 -1 -1
ITEM: TIMESTEP 
88000
ITEM: NUMBER OF ATOMS 
5
ITEM: BOX BOUNDS pp pp pp 
-1.5 1.5
-1.5 1.5
-1.5 1.5
ITEM: ATOMS id type x y z 
1 1 1 -1 0.3
2 1 0.145154 0.245154 0.963653
3 1 0.0548462 0.154846 0.286347
4 1 1 1 1
5 1 -1 -1 -1
ITEM: TIMESTEP 
89000
ITEM: NUMBER OF ATOMS 
5
ITEM: BOX BOUNDS pp pp pp 
-1.5 1.5
-1.5 1.5
-1.5 1.5
ITEM: ATOMS id type x y z 
1 1 1 -1 0.3
2 1 0.145073 0.245073 0.963048
3 1 0.0549269 0.154927 0.286952
4 1 1 1 1
5 1 -1 -1 -1
ITEM: TIMESTEP 
90000
ITEM: NUMBER OF ATOMS 
5
ITEM: BOX BOUNDS pp pp pp 
-1.5 1.5
-1.5 1.5
-1.5 1.5
ITEM: ATOMS id type x y z 
1 1 1 -1 0.3
2 1 0.144991 0.244991 0.962436
3 1 0.0550085 0.155009 0.287564
4 1 1 1 1
5 1 -1 -1 -1
ITEM: TIMESTEP 
91000
ITEM: NUMBER OF ATOMS 
5
ITEM: BOX BOUNDS pp pp pp 
-1.5 1.5
-1.5 1.5
-1.5 1.5
ITEM: ATOMS id type x y z 
1 1 1 -1 0.3
2 1 0.144909 0.244909 0.961816
3 1 0.0550912 0.155091 0.288184
4 1 1 1 1
5 1 -1 -1 -1
ITEM: TIMESTEP 
92000
ITEM: NUMBER OF ATOMS 
5
ITEM: BOX BOUNDS pp pp pp 
-1.5 1.5
-1.5 1.5
-1.5 1.5
ITEM: ATOMS id type x y z 
1 1 1 -1 0.3
2 1 0.144825 0.244825 0.961188
3 1 0.055175 0.155175 0.288812
4 1 1 1 1
5 1 -1 -1 -1
ITEM: TIMESTEP 
93000
ITEM: NUMBER OF ATOMS 
5
ITEM: BOX BOUNDS pp pp pp 
-1.5 1.5
-1.5 1.5
-1.5 1.5
ITEM: ATOMS id type x y z 
1 1 1 -1 0.3
2 1 0.14474 0.24474 0.960552
3 1 0.0552598 0.15526 0.289448
4 1 1 1 1
5 1 -1 -1 -1
ITEM: TIMESTEP 
94000
ITEM: NUMBER OF ATOMS 
5
ITEM: BOX BOUNDS pp pp pp 
-1.5 1.5
-1.5 1.5
-1.5 1.5
ITEM: ATOMS id type x y z 
1 1 1 -1 0.3
2 1 0.144654 0.244654 0.959907
3 1 0.0553457 0.155346 0.290093
4 1 1 1 1
5 1 -1 -1 -1
ITEM: TIMESTEP 
95000
ITEM: NUMBER OF ATOMS 
5
ITEM: BOX BOUNDS pp pp pp 
-1.5 1.5
-1.5 1.5
-1.5 1.5
ITEM: ATOMS id type x y z 
1 1 1 -1 0.3
2 1 0.144567 0.244567 0.959254
3 1 0.0554327 0.155433 0.290746
4 1 1 1 1
5 1 -1 -1 -1
ITEM: TIMESTEP 
96000
ITEM: NUMBER OF ATOMS 
5
ITEM: BOX BOUNDS pp pp pp 
-1.5 1.5
-1.5 1.5
-1.5 1.5
ITEM: ATOMS id type x y z 
1 1 1 -1 0.3
2 1 0.144479 0.244479 0.958593
3 1 0.055521 0.155521 0.291407
4 1 1 1 1
5 1 -1 -1 -1
ITEM: TIMESTEP 
97000
ITEM: NUMBER OF ATOMS 
5
ITEM: BOX BOUNDS pp pp pp 
-1.5 1.5
-1.5 1.5
-1.5 1.5
ITEM: ATOMS id type x y z 
1 1 1 -1 0.3
2 1 0.14439 0.24439 0.957922
3 1 0.0556104 0.15561 0.292078
4 1 1 1 1
5 1 -1 -1 -1
ITEM: TIMESTEP 
98000
ITEM: NUMBER OF ATOMS 
5
ITEM: BOX BOUNDS pp pp pp 
-1.5 1.5
-1.5 1.5
-1.5 1.5
ITEM: ATOMS id type x y z 
1 1 1 -1 0.3
2 1 0.144299 0.244299 0.957242
3 1 0.0557011 0.155701 0.292758
4 1 1 1 1
5 1 -1 -1 -1
ITEM: TIMESTEP 
99000
ITEM: NUMBER OF ATOMS 
5
ITEM: BOX BOUNDS pp pp pp 
-1.5 1.5
-1.5 1.5
-1.5 1.5
ITEM: ATOMS id type x y z 
1 1 1 -1 0.3
2 1 0.144207 0.244207 0.956552
3 1 0.0557931 0.155793 0.293448
4 1 1 1 1
5 1 -1 -1 -1
